Si                                      
   1.00000000000000     
    10.2114949999999993    0.0000000000000000    0.0000000000000000
     0.0000000000000000   10.2114949999999993    0.0000000000000000
     0.0000000000000000    0.0000000000000000   10.2114949999999993
   Si
   100
Direct
  0.1301860000000019  0.4313239999999965  0.4193399999999983
  0.8240550000000013  0.1283940000000001  0.4544539999999984
  0.9585650000000001  0.6638080000000031  0.7122910000000005
  0.7504119999999972  0.3458490000000012  0.5871279999999999
  0.5643230000000017  0.9744880000000009  0.8435989999999975
  0.9670800000000028  0.7893279999999976  0.9003650000000007
  0.4474209999999985  0.6841760000000008  0.9044359999999969
  0.4874539999999996  0.5537250000000000  0.7001869999999997
  0.6219880000000018  0.7354690000000019  0.0159674000000010
  0.1075159999999968  0.5352409999999992  0.6180390000000031
  0.9508709999999994  0.2379880000000014  0.2887589999999989
  0.3098079999999968  0.5199500000000015  0.2942589999999967
  0.0143630999999971  0.6742959999999982  0.4685869999999994
  0.5086920000000035  0.9447996000000032  0.2130060000000000
  0.8796940000000006  0.9359749999999991  0.6869569999999996
  0.0243115000000032  0.4508409999999969  0.9574410000000029
  0.2950000000000017  0.8831459999999964  0.5536010000000005
  0.1677159999999986  0.8576920000000001  0.3568100000000030
  0.7944930000000028  0.8966419999999999  0.4348400000000012
  0.8034210000000002  0.7317850000000021  0.5844979999999964
  0.5928230000000028  0.3504849999999990  0.7628910000000033
  0.9978800000000021  0.8965299999999985  0.4989199999999983
  0.4811419999999984  0.1562770000000029  0.3232119999999981
  0.7970690000000005  0.0035799999999995  0.8968729999999994
  0.8160859999999985  0.0221507999999986  0.2283169999999970
  0.4686829999999986  0.3210020000000000  0.9636920000000018
  0.9550910000000030  0.8110199999999992  0.2727780000000024
  0.9648449999999968  0.1341030000000032  0.6188080000000014
  0.8123709999999988  0.3398070000000004  0.9140900000000016
  0.7765169999999983  0.6650059999999982  0.3371449999999996
  0.9605540000000019  0.9862549999999999  0.0397201999999979
  0.1365800000000021  0.4368249999999989  0.1566499999999991
  0.6718919999999997  0.3616790000000023  0.1001279999999980
  0.1006229999999988  0.7942430000000016  0.0717167000000032
  0.0770751000000018  0.2271009999999976  0.0736784999999998
  0.5768690000000021  0.7563630000000003  0.4831629999999976
  0.1733770000000021  0.1599999999999966  0.8250200000000021
  0.8869979999999984  0.4090029999999985  0.1183669999999992
  0.8230050000000020  0.8012060000000005  0.0620101000000020
  0.6043420000000026  0.5178390000000022  0.9415989999999965
  0.9541159999999991  0.1986220000000003  0.8336340000000035
  0.6807829999999981  0.9546780000000012  0.6401100000000000
  0.5578420000000008  0.6152060000000006  0.2930670000000006
  0.4693340000000035  0.5239860000000007  0.1036179999999973
  0.5342879999999965  0.7791289999999975  0.7095440000000011
  0.1590509999999981  0.0432106000000019  0.6113709999999983
  0.0807373999999967  0.0861845000000017  0.4298289999999980
  0.6230449999999976  0.1678280000000001  0.4962390000000028
  0.3857380000000035  0.1271600000000035  0.9375929999999997
  0.0696323000000021  0.9815329999999989  0.8190389999999965
  0.4349759999999989  0.8994429999999980  0.0011999999999972
  0.1146699999999967  0.8016739999999984  0.6652199999999979
  0.3199320000000014  0.0073902000000032  0.3667629999999988
  0.1800899999999999  0.2331860000000034  0.2926050000000018
  0.3391739999999999  0.9941820000000021  0.7486000000000033
  0.5094720000000024  0.3572940000000031  0.5503199999999993
  0.7001869999999997  0.2022499999999994  0.2568169999999981
  0.2338409999999982  0.6753509999999991  0.4578729999999993
  0.2474449999999990  0.3392720000000011  0.9947700000000026
  0.6567039999999977  0.5500579999999999  0.5191159999999968
  0.2459690000000023  0.8305829999999972  0.8817129999999977
  0.6663039999999967  0.9682480000000027  0.0815768000000006
  0.4328450000000004  0.5693770000000029  0.4855340000000012
  0.3157309999999995  0.1169799999999981  0.1525010000000009
  0.2463809999999995  0.6067869999999971  0.0406435000000016
  0.3333269999999970  0.4929619999999986  0.8652269999999973
  0.3695179999999993  0.3351070000000007  0.1814650000000029
  0.9244860000000017  0.4488160000000008  0.7292599999999965
  0.8781639999999982  0.5357740000000035  0.5275779999999983
  0.0682532000000009  0.0185109999999966  0.2254489999999976
  0.3054279999999991  0.4352370000000008  0.6342169999999996
  0.9394819999999982  0.3061330000000027  0.4971249999999969
  0.9779389999999992  0.5401579999999981  0.2856329999999971
  0.7391580000000033  0.8006910000000005  0.8014009999999985
  0.7637599999999978  0.1324329999999989  0.7188469999999967
  0.3931850000000026  0.7988289999999978  0.3675739999999976
  0.9783800000000014  0.6086949999999973  0.0810261999999966
  0.1597569999999990  0.2724830000000011  0.5796520000000029
  0.5375680000000003  0.3789379999999980  0.2966100000000012
  0.5518339999999995  0.1368579999999966  0.0951655000000002
  0.1253389999999968  0.6258949999999999  0.8668690000000012
  0.1246000000000009  0.3723379999999992  0.7700400000000016
  0.3685059999999964  0.1611899999999977  0.5109070000000031
  0.3001050000000021  0.6751959999999997  0.6952250000000006
  0.2841519999999988  0.9105100000000022  0.1742449999999991
  0.8191899999999990  0.5753210000000024  0.9372490000000013
  0.4801640000000020  0.9563330000000008  0.5937729999999988
  0.1968719999999990  0.0158800000000028  0.0139599999999973
  0.7325360000000032  0.5790390000000016  0.7330499999999986
  0.3343309999999988  0.2776119999999977  0.7637029999999996
  0.6472720000000010  0.2074199999999990  0.9031189999999967
  0.5222419999999985  0.1508340000000032  0.6906529999999975
  0.3926039999999986  0.7329920000000030  0.1562830000000019
  0.7633390000000020  0.4261690000000016  0.3337739999999982
  0.7364589999999964  0.5744940000000014  0.1406479999999988
  0.3350289999999987  0.3339459999999974  0.4067110000000014
  0.5862780000000001  0.9696564999999993  0.4115690000000001
  0.7016169999999988  0.8111379999999997  0.2384500000000003
  0.8391060000000010  0.1774389999999997  0.0703286999999975
  0.1505420000000015  0.6699679999999972  0.2505710000000008
 
  0.00000000E+00  0.00000000E+00  0.00000000E+00
  0.00000000E+00  0.00000000E+00  0.00000000E+00
  0.00000000E+00  0.00000000E+00  0.00000000E+00
  0.00000000E+00  0.00000000E+00  0.00000000E+00
  0.00000000E+00  0.00000000E+00  0.00000000E+00
  0.00000000E+00  0.00000000E+00  0.00000000E+00
  0.00000000E+00  0.00000000E+00  0.00000000E+00
  0.00000000E+00  0.00000000E+00  0.00000000E+00
  0.00000000E+00  0.00000000E+00  0.00000000E+00
  0.00000000E+00  0.00000000E+00  0.00000000E+00
  0.00000000E+00  0.00000000E+00  0.00000000E+00
  0.00000000E+00  0.00000000E+00  0.00000000E+00
  0.00000000E+00  0.00000000E+00  0.00000000E+00
  0.00000000E+00  0.00000000E+00  0.00000000E+00
  0.00000000E+00  0.00000000E+00  0.00000000E+00
  0.00000000E+00  0.00000000E+00  0.00000000E+00
  0.00000000E+00  0.00000000E+00  0.00000000E+00
  0.00000000E+00  0.00000000E+00  0.00000000E+00
  0.00000000E+00  0.00000000E+00  0.00000000E+00
  0.00000000E+00  0.00000000E+00  0.00000000E+00
  0.00000000E+00  0.00000000E+00  0.00000000E+00
  0.00000000E+00  0.00000000E+00  0.00000000E+00
  0.00000000E+00  0.00000000E+00  0.00000000E+00
  0.00000000E+00  0.00000000E+00  0.00000000E+00
  0.00000000E+00  0.00000000E+00  0.00000000E+00
  0.00000000E+00  0.00000000E+00  0.00000000E+00
  0.00000000E+00  0.00000000E+00  0.00000000E+00
  0.00000000E+00  0.00000000E+00  0.00000000E+00
  0.00000000E+00  0.00000000E+00  0.00000000E+00
  0.00000000E+00  0.00000000E+00  0.00000000E+00
  0.00000000E+00  0.00000000E+00  0.00000000E+00
  0.00000000E+00  0.00000000E+00  0.00000000E+00
  0.00000000E+00  0.00000000E+00  0.00000000E+00
  0.00000000E+00  0.00000000E+00  0.00000000E+00
  0.00000000E+00  0.00000000E+00  0.00000000E+00
  0.00000000E+00  0.00000000E+00  0.00000000E+00
  0.00000000E+00  0.00000000E+00  0.00000000E+00
  0.00000000E+00  0.00000000E+00  0.00000000E+00
  0.00000000E+00  0.00000000E+00  0.00000000E+00
  0.00000000E+00  0.00000000E+00  0.00000000E+00
  0.00000000E+00  0.00000000E+00  0.00000000E+00
  0.00000000E+00  0.00000000E+00  0.00000000E+00
  0.00000000E+00  0.00000000E+00  0.00000000E+00
  0.00000000E+00  0.00000000E+00  0.00000000E+00
  0.00000000E+00  0.00000000E+00  0.00000000E+00
  0.00000000E+00  0.00000000E+00  0.00000000E+00
  0.00000000E+00  0.00000000E+00  0.00000000E+00
  0.00000000E+00  0.00000000E+00  0.00000000E+00
  0.00000000E+00  0.00000000E+00  0.00000000E+00
  0.00000000E+00  0.00000000E+00  0.00000000E+00
  0.00000000E+00  0.00000000E+00  0.00000000E+00
  0.00000000E+00  0.00000000E+00  0.00000000E+00
  0.00000000E+00  0.00000000E+00  0.00000000E+00
  0.00000000E+00  0.00000000E+00  0.00000000E+00
  0.00000000E+00  0.00000000E+00  0.00000000E+00
  0.00000000E+00  0.00000000E+00  0.00000000E+00
  0.00000000E+00  0.00000000E+00  0.00000000E+00
  0.00000000E+00  0.00000000E+00  0.00000000E+00
  0.00000000E+00  0.00000000E+00  0.00000000E+00
  0.00000000E+00  0.00000000E+00  0.00000000E+00
  0.00000000E+00  0.00000000E+00  0.00000000E+00
  0.00000000E+00  0.00000000E+00  0.00000000E+00
  0.00000000E+00  0.00000000E+00  0.00000000E+00
  0.00000000E+00  0.00000000E+00  0.00000000E+00
  0.00000000E+00  0.00000000E+00  0.00000000E+00
  0.00000000E+00  0.00000000E+00  0.00000000E+00
  0.00000000E+00  0.00000000E+00  0.00000000E+00
  0.00000000E+00  0.00000000E+00  0.00000000E+00
  0.00000000E+00  0.00000000E+00  0.00000000E+00
  0.00000000E+00  0.00000000E+00  0.00000000E+00
  0.00000000E+00  0.00000000E+00  0.00000000E+00
  0.00000000E+00  0.00000000E+00  0.00000000E+00
  0.00000000E+00  0.00000000E+00  0.00000000E+00
  0.00000000E+00  0.00000000E+00  0.00000000E+00
  0.00000000E+00  0.00000000E+00  0.00000000E+00
  0.00000000E+00  0.00000000E+00  0.00000000E+00
  0.00000000E+00  0.00000000E+00  0.00000000E+00
  0.00000000E+00  0.00000000E+00  0.00000000E+00
  0.00000000E+00  0.00000000E+00  0.00000000E+00
  0.00000000E+00  0.00000000E+00  0.00000000E+00
  0.00000000E+00  0.00000000E+00  0.00000000E+00
  0.00000000E+00  0.00000000E+00  0.00000000E+00
  0.00000000E+00  0.00000000E+00  0.00000000E+00
  0.00000000E+00  0.00000000E+00  0.00000000E+00
  0.00000000E+00  0.00000000E+00  0.00000000E+00
  0.00000000E+00  0.00000000E+00  0.00000000E+00
  0.00000000E+00  0.00000000E+00  0.00000000E+00
  0.00000000E+00  0.00000000E+00  0.00000000E+00
  0.00000000E+00  0.00000000E+00  0.00000000E+00
  0.00000000E+00  0.00000000E+00  0.00000000E+00
  0.00000000E+00  0.00000000E+00  0.00000000E+00
  0.00000000E+00  0.00000000E+00  0.00000000E+00
  0.00000000E+00  0.00000000E+00  0.00000000E+00
  0.00000000E+00  0.00000000E+00  0.00000000E+00
  0.00000000E+00  0.00000000E+00  0.00000000E+00
  0.00000000E+00  0.00000000E+00  0.00000000E+00
  0.00000000E+00  0.00000000E+00  0.00000000E+00
  0.00000000E+00  0.00000000E+00  0.00000000E+00
  0.00000000E+00  0.00000000E+00  0.00000000E+00
  0.00000000E+00  0.00000000E+00  0.00000000E+00
