Si 
 1.0000000000000000
    10.2114949999999993    0.0000000000000000    0.0000000000000000
     0.0000000000000000   10.2114949999999993    0.0000000000000000
     0.0000000000000000    0.0000000000000000   10.2114949999999993
 100
Cartesian
  1.3293936880699999  4.4044628693799996  4.2820883133000001
  8.4148335122250000  1.3110946890299999  4.6406547487300003
  9.7883817046749986  6.7784720729599988  7.2735559850449993
  7.6628283859399993  3.5316353342549998  5.9954546363599999
  5.7625814928849994  9.9509793395599999  8.6144069705049997
  9.8753325846000006  8.0602189253599992  9.1940726956749987
  4.5688373043950001  6.9864598031199998  9.2356436918200000
  4.9776340837299999  5.6543600688749995  7.1499560495649996
  6.3514273520599991  7.5102380161550002  0.1630510252630000
  1.0978990964199999  5.4656107952949995  6.3111021583049993
  9.7098144621449993  2.4302132720600000  2.9486610847049999
  3.1636028429599996  5.3094668252499995  3.0048243072049998
  0.1466687238345000  6.8855702325199992  4.7849738075649997
  5.1945058145400003 -0.5636786085979999  2.1751097039700000
  8.9829908825299984  9.5577040326249989  7.0148579707150001
  0.2482567606925000  4.6037606172949994  9.7769039842950001
  3.0123910249999994  9.0182409632699994  5.6530938434949993
  1.7126310954199999  8.7583175695399991  3.6435635309499999
  8.1129612970349996  9.1560552997899993  4.4403664857999994
  8.2041295243950003  7.4726188685750001  5.9685984045099989
  6.0536091003849997  3.5789758250749997  7.7902576320449990
 10.1898466306000000  9.1549116123500003  5.0947190853999995
  4.9131791272899994  1.5958218041149999  3.3004777219399997
  8.1392661081550006 10.2480521520999979  9.1584141551350005
  8.3334581085699995  0.2261927834460000  2.3314579039149996
  4.7859541110850001  3.2779103179900000  9.8407360395399994
  9.7529069710450003  8.2817266748999998  2.7854711831099999
  9.8525098932749984  1.3693921139849998  6.3189547979600000
  8.2955224046449985  3.4699374814650001  9.3342254645499985
  7.9293994629149998  6.7907054439699994  3.4427544817749993
  9.8086923682300000 10.0711380012250000  0.4056026236990000
  1.3946859870999999  4.4606363033749998  1.5996306917500001
  6.8610217985400004  3.6932833001049996  1.0224565713599998
  1.0275112613849999  8.1104084232849996  0.7323347234664999
  0.7870519982744999  2.3190407259949999  0.7523676343574999
  5.8906949091549992  7.7235969926849997  4.9338165586849998
  1.7704383686149998  1.6338391999999999  8.4246876048999990
  9.0575756420099989  4.1765320894849998  1.2087040286649999
  8.4041114424749992  8.1815110629699994  0.6332158260994999
  6.1712353112900002  5.2879103593050001  9.6151334805049995
  9.7429507634199997  2.0282275598899999  8.5126494228300000
  6.9518122005849996  9.7486896236099998  6.5364800644499992
  5.6964007937899988  6.2821729929699996  2.9926522051650002
  4.7926017943299994  5.3506804190699988  1.0580946889100000
  5.4558792405599998  7.9560718878549990  7.2455050082799994
  1.6241484912449999  0.4412448258470000  6.2430119096449994
  0.8244495564130000  0.8800725908274999  4.3891966843550003
  6.3622209022749994  1.7137747828599998  5.0673420673049998
  3.9389616583099998  1.2984937041999998  9.5742262315349986
  0.7110498832884999 10.0229193218349995  8.3636126533049993
  4.4417552491199999  9.1846576972849991 10.2237487940000005
  1.1709521316499998  8.1862900426299987  6.7928907038999995
  3.2669840183399996  0.0754649903490000  3.7451985406849997
  1.8389881345499999  2.3811776730699998  2.9879344944749997
  3.4634736051299995 10.1520845220900000  7.6443251569999999
  5.2024707806399997  3.6485058945300000  5.6195899283999999
  7.1499560495649996  2.0652748637500000  2.6224855114149999
  2.3878662022949997  6.8963433597449999  4.6755678501349998
  2.5267833802749999  3.4644743316400000 10.1580888811500003
  6.7059296124799994  5.6169145167100005  5.3009504384200001
  2.5117112136549999  8.4814941515849984  9.0036078909349992
  6.8039599644799997  9.8872596107599993  0.8330210853159999
  4.4199945532749991  5.8141903886149997  4.9580280133299999
  3.2240855278449998  1.1945406851000000  1.5572631989949999
  2.5159183495949997  6.1962024165649989  0.4150308970325000
  3.4037669938649997  5.0338789981899996  8.8352611843649989
  3.7733312094099998  3.4219434549649996  1.8530289401749998
  9.4403841665700003  4.5830823399199998  7.4468348436999996
  8.9673672951799990  5.4710535221299992  5.3873601091099994
  0.6969672105339999  0.1890249839450000  2.3021713362549998
  3.1188764948599994  4.4444204493149995  6.4763037244149997
  9.5935157455900004  3.1260755988349995  5.0763894518749995
  9.9862192088050001  5.5158207162099995  2.9167399513349999
  7.5479082212099993  8.1762521430449997  8.1835023044950006
  7.7991314211999994  1.3523389173349998  7.3405025462649993
  4.0150066615749997  8.1572383393549988  3.7534800631300000
  9.9907224781000004  6.2156859490249996  0.8273986361690000
  1.6313578067150001  2.7824587920849995  5.9191134997399990
  5.4893729441600003  3.8695234923099999  3.0288315319499994
  5.6350501318299999  1.3975247827099999  0.9717820274225000
  1.2798985718050000  6.3913236630249992  8.8520284591549991
  1.2723522770000000  3.8021276253099998  7.8632596097999992
  3.7629971764699999  1.6459908790500000  5.2171242759649994
  3.0645207069749998  6.8947605780199996  7.0992866113749997
  2.9016167272400000  9.2976683124499999  1.7793019462749999
  8.3651545890499985  5.8748875148949997  9.5707134772549995
  4.9031922851799994  9.7655896478349984  6.0633100206349999
  2.0103574436399998 10.3736535405999977 10.3540474701999994
  7.4802877013199991  5.9128538533049992  7.4855364097499990
  3.4140193348449999  2.8348335499399999  7.7985493659850000
  6.6096147916399994  2.1180682928999999  9.2221951529049999
  5.3328715717899993  1.5402406368299999  7.0525996562349995
  4.0090737829799998  7.4849441430399990  1.5958830730850000
  7.7948323818049996  4.3518226126549999  3.4083315321300001
  7.5203473962049996  5.8664426085299990  1.4362263487599998
  3.4211469583550000  3.4100879092700001  4.1531273429450000
  5.9867748656099993 -0.3098524985325000  4.2027347856550001
  7.1645584874150003  8.2829316313099994  2.4349309827499996
  8.5685267234699989  1.8119174613050000  0.7181611684064999
  1.5372588802900000  6.8413748821599993  2.5587045136449995
