Zr50 Al10 Cu40
1.0
12.114016 0.000000 0.000000
0.000000 12.114016 0.000000
0.000000 0.000000 12.114016
Zr Al Cu
50 10 40
direct
0.666667 0.777774 0.333333 Zr
0.555554 0.444444 0.111111 Zr
0.333333 0.444444 0.111111 Zr
0.888887 0.333333 0.111111 Zr
0.222222 0.111111 0.333333 Zr
0.222222 0.777774 0.111111 Zr
0.555554 0.444444 0.333333 Zr
0.111111 0.666667 0.111111 Zr
0.333333 0.777774 0.222222 Zr
0.888887 0.777774 0.111111 Zr
0.111111 0.666667 0.333333 Zr
0.222222 0.777774 0.333333 Zr
1.000000 0.222222 0.333333 Zr
1.000000 0.444444 0.111111 Zr
0.666667 0.222222 0.222222 Zr
0.444444 0.555554 0.111111 Zr
0.444444 1.000000 0.111111 Zr
0.222222 0.444444 0.222222 Zr
0.777774 0.555554 0.222222 Zr
0.888887 0.666667 0.222222 Zr
0.666667 1.000000 0.111111 Zr
0.777774 0.222222 0.111111 Zr
0.444444 0.333333 0.111111 Zr
1.000000 0.222222 0.111111 Zr
0.777774 0.444444 0.333333 Zr
0.777774 0.333333 0.222222 Zr
0.555554 0.666667 0.111111 Zr
0.444444 0.222222 0.222222 Zr
0.555554 0.888887 0.111111 Zr
1.000000 0.444444 0.333333 Zr
0.111111 0.111111 0.222222 Zr
0.555554 0.111111 0.222222 Zr
0.333333 0.444444 0.333333 Zr
0.888887 0.111111 0.111111 Zr
0.111111 0.222222 0.333333 Zr
0.444444 0.777774 0.333333 Zr
0.888887 1.000000 0.111111 Zr
0.333333 0.222222 0.333333 Zr
0.777774 0.666667 0.111111 Zr
1.000000 0.111111 0.222222 Zr
0.444444 0.666667 0.222222 Zr
0.111111 0.444444 0.333333 Zr
0.777774 0.444444 0.111111 Zr
0.333333 0.111111 0.222222 Zr
0.777774 0.888887 0.111111 Zr
0.111111 0.777774 0.222222 Zr
0.888887 0.222222 0.222222 Zr
1.000000 0.888887 0.111111 Zr
0.222222 0.222222 0.222222 Zr
0.555554 0.222222 0.333333 Zr
0.222222 0.333333 0.333333 Al
0.888887 0.444444 0.222222 Al
0.444444 0.777774 0.111111 Al
0.555554 0.555554 0.222222 Al
0.555554 0.666667 0.333333 Al
0.888887 0.111111 0.333333 Al
0.222222 0.555554 0.111111 Al
0.333333 0.333333 0.222222 Al
0.222222 0.333333 0.111111 Al
0.444444 0.111111 0.333333 Al
0.555554 0.333333 0.222222 Cu
0.111111 0.888887 0.111111 Cu
0.777774 0.222222 0.333333 Cu
0.555554 0.777774 0.222222 Cu
0.222222 0.666667 0.222222 Cu
0.222222 0.111111 0.111111 Cu
0.111111 0.444444 0.111111 Cu
0.444444 0.111111 0.111111 Cu
0.222222 1.000000 0.111111 Cu
0.777774 0.111111 0.222222 Cu
0.333333 0.666667 0.333333 Cu
0.333333 0.222222 0.111111 Cu
0.666667 0.777774 0.111111 Cu
0.222222 0.555554 0.333333 Cu
0.777774 0.666667 0.333333 Cu
0.666667 0.333333 0.111111 Cu
0.888887 0.555554 0.111111 Cu
0.666667 0.333333 0.333333 Cu
1.000000 0.555554 0.222222 Cu
0.666667 0.111111 0.333333 Cu
0.111111 0.333333 0.222222 Cu
0.333333 0.555554 0.222222 Cu
0.666667 0.666667 0.222222 Cu
0.111111 0.555554 0.222222 Cu
0.555554 0.222222 0.111111 Cu
1.000000 0.666667 0.111111 Cu
0.888887 0.333333 0.333333 Cu
0.777774 0.777774 0.222222 Cu
0.666667 0.111111 0.111111 Cu
0.333333 0.888887 0.111111 Cu
0.444444 0.555554 0.333333 Cu
0.444444 0.444444 0.222222 Cu
0.666667 0.555554 0.111111 Cu
0.666667 0.555554 0.333333 Cu
0.111111 0.222222 0.111111 Cu
0.666667 0.444444 0.222222 Cu
0.888887 0.555554 0.333333 Cu
1.000000 0.333333 0.222222 Cu
0.333333 0.666667 0.111111 Cu
0.444444 0.333333 0.333333 Cu
