Si100                                   
   1.00000000000000     
    10.2114949999999993    0.0000000000000000    0.0000000000000000
     0.0000000000000000   10.2114949999999993    0.0000000000000000
     0.0000000000000000    0.0000000000000000   10.2114949999999993
   Si
   100
Direct
  0.7886743597381591  0.8856672686634564  0.1556771961135613
  0.8290183607955259  0.8927131616497241  0.8049526013900700
  0.6462897238958649  0.1232493881357501  0.4920005519560104
  0.8475218023980302  0.2626929236807277  0.8442745968344961
  0.1979211116503785  0.9553128884219101  0.4395120403988181
  0.6124529230718396  0.7949428051485017  0.7691706639423324
  0.4562777620325449  0.5748015098194691  0.4070170660437603
  0.5472336792976853  0.5627305267758810  0.2092951857910023
  0.4723015359928552  0.9774665576221818  0.2341690752463537
 -0.0095675102488181  1.0841787674555952  0.8366407230183692
  0.1891362257121623  0.1882428411767462  0.4886358310007351
  0.8676182356264213  0.4157259120138791  0.4535957340221612
  1.0639467184481990  0.3055009664286308  0.8254208938451576
  0.7682241964470934  0.3058833204008116  0.6458889060357417
  0.8828936728948810  0.1372460886717063  0.4552319906737006
 -0.0227703569567204  0.9705089332786980  0.4359041517615017
  0.0659279773492770  0.0874334561584925  0.6481787045181336
  0.2125325194860450  0.2892328522359287  1.0432406689179414
  0.4341365480477852  0.2098002432594054  0.4572305649263989
  0.5776050778993477  0.7695207023597134  0.1942322299165594
  0.5402688444358977  0.6323698019737242 -0.0378299794333414
 -0.0097986740222822  0.3108252619076389  0.6109878229842612
  0.6788521284634668  0.2248825949394479  1.0329323394291723
  0.3458057058899572  0.6880623522023029  0.2365661513835517
  0.8426552840825797  0.1001495319995951  0.1906905445622722
  0.0942124873235938  0.4342128915356875  0.1605082244432594
  0.2906919762851004  0.0721473203532607  0.0615704024095456
  0.0806464486300916  0.3417624155890025  0.3681099931982840
  0.3192033025054254  0.4897418962000397  0.1158746558916007
  0.6447189765712088  0.0993016897054738  0.8216125231766100
  0.5904149916759788  0.7902584435177606  0.4695413321977476
  0.2218656174774624  0.1326700622042390  0.8506000468330477
  0.1752269343039623  0.8746590890110459  0.0292490645502126
  0.0782469818490632  0.5127025339741296  0.4782550020661653
  0.2838446552653390  0.3167368048725747  0.2489917728527336
 -0.0257981367005968  0.8470108729568341  0.9887452088249004
  0.4293418764836431  0.8913251990043001  0.0572147326825560
  0.7405977090167288  0.6306008999741257  0.1026899832604058
  0.0982114022665531  0.1308032862910608  0.3019837373587675
  0.5885654615630421  0.0292936931104776  0.0628803947659654
  0.7754786968851872  0.6825530424304918  0.9001068444892313
  0.3731335491944818  0.4492834673649634  0.6919310803717317
  1.0176259425733216  0.9447776180319373  0.2101429468409879
  0.9336744299725492  0.5810402328353452  0.6202296055284755
  0.5520933479946424  0.3606026403818015  0.5692942316097069
  0.1621398620143464  0.4498481563046085  0.6646215073593058
  0.9246016942277574  0.2972724188975869  0.2627661325716769
  0.5057096621991374  0.1802071525232594  0.6724564669314846
  0.4328931304386336  0.1130280295307114  0.8826580758418821
  0.8056272767089944  0.0337308058775165 -0.0293688442583875
  0.3840552743216409  0.3259257955550068  0.8902773117492822
  0.2214092928845467  0.5357460404630908  0.3090825281108585
  0.1347132716204456  0.9474098902904110  0.7683425462762326
  0.9681444432853863  0.7160000017636130  0.7977802330008696
  0.4992690236918120  0.3612419115327530  0.3205233861451018
 -0.0263388430242671  0.8940642880375367  0.6268504412192623
  0.1087771795505338  0.6889176527000406  0.6024387995791093
  0.6949505597808562  0.5859156372421294  0.3878088310914816
  0.1138242490959346  0.6559543886670913  0.0313205626857797
  0.6093380458599671  0.9600774559155825  0.6234475347165090
  0.6446429680153546  0.8366942702161788 -0.0226696951922072
  0.3164316251181699  0.0445608614272048  0.6594433181756187
  0.7348565107887339  0.5131090591689133  0.5975957228245540
 -0.0384933045657035  0.7183494569497134  0.1610444176537773
  0.5025614038345517  0.4107925276139572  1.0490055975485040
  0.2268840376399373  0.8603803884682900  0.2286403390329668
  0.9189449544190500  0.5579632232626544  0.2943477463063894
  0.2744041178470274  0.2589678842391335  0.6805900629761339
  0.8406711763618983  0.4767724433447822  0.7948477107296722
  0.7893288583466840  0.7218855816534264  0.6457004139382950
  0.5943014129877355  0.2995178798556960  0.8252683242842582
  0.2533798258259612  0.4835615004929092  0.8740028824442854
  0.1950668546109532  0.7135581193844645  0.8108184681712659
  0.5507917764299769  0.6235734377235347  0.5991696918322459
  0.6890124932445706  0.4586127339901818 -0.0269511698740028
  0.3605526973958034  0.7813784074737321  0.4416426477027057
  0.3308321738847674  0.9100549283614804  0.8533643629618572
  0.3125408681387966  0.4078395971073931  0.4705282190435794
  0.9120151204842054  0.5239300964899162  0.0623377328782708
  0.6081806426295572  0.5152051019398579  0.7815852906929016
  0.7109220295091940  0.2954813733189627  0.4016829225042070
  0.1065714153255819  0.7146850038505612  0.3863832941567376
  0.8429795792941061  0.0864460266389221  0.6665297696653019
  0.3237336543529269  0.6158051277410733  0.5703862393967397
  0.4459905418711705  0.2075418358850888  1.1228604940659213
  0.6259934575772123  0.1754053983828943  0.2483051981056677
  0.3321094131520936  0.7100633718819060  0.0184751921253773
  0.7540333148867252  0.9143369658139211  0.5024871388115083
  0.4157601260658426  0.6581243781205679  0.7945815701675182
  0.6829258683729275  0.9799770660364255  0.3026369965896301
  0.4554805753592599 -0.0011050630145512  0.4527283822706705
  0.7268393917452408  0.4167949955178227  0.2026653738737429
  0.4479910743156253  0.8379510567994962  0.6533630317849056
  0.9335622453453011  0.3057746869094481  0.0424781084355801
  0.7830099513544718  0.7689272195812785  0.3253972087634012
  1.0464171026696580  0.0942414590864646  0.0617038848338001
  0.0408283253280674  0.5151674319528489  0.8984579678063415
  0.9221755729092490  0.7265240287389679  0.4866208189362569
  0.2452384840381442  0.8432591109743378  0.6082146084728743
  0.3142630707684950  0.1119266435947338  0.2795761854516440
 
 -0.11599430E-01  0.39768984E-02 -0.31295385E-03
 -0.14538402E-02  0.11144536E-01  0.34846394E-02
 -0.97903939E-04 -0.57956525E-02 -0.59969022E-02
 -0.92088298E-02  0.15433549E-02  0.34898432E-02
  0.44570933E-02  0.16278425E-02 -0.37852678E-02
  0.16254028E-02  0.35078884E-02  0.60172153E-02
 -0.17874133E-01 -0.13203390E-03 -0.13081363E-01
  0.13593226E-01 -0.33867416E-02  0.89835537E-03
 -0.17294401E-01  0.87661044E-02 -0.47611429E-05
 -0.57959924E-02 -0.32128869E-02  0.18737942E-01
  0.74059460E-02 -0.79395430E-03 -0.21718221E-02
 -0.55253029E-02  0.40474023E-03  0.29992461E-02
  0.11307443E-01  0.74297947E-02  0.29662646E-03
  0.68561076E-02  0.56271537E-02  0.47013186E-02
  0.89616922E-02  0.19442076E-01 -0.75140617E-02
  0.28840756E-03  0.92148772E-02 -0.11954373E-01
  0.20199647E-02 -0.72880579E-02 -0.11369294E-02
 -0.14855216E-01  0.97278204E-02 -0.20304763E-02
  0.53908984E-02  0.89562246E-02 -0.14810056E-01
  0.73419649E-02 -0.32691675E-02 -0.10802968E-02
  0.24063403E-02  0.31690468E-02 -0.52927087E-03
 -0.18967627E-02 -0.23802874E-03  0.51197692E-03
 -0.25352058E-02 -0.76324161E-02 -0.59395613E-02
  0.82379192E-02  0.76822362E-02  0.31154577E-02
  0.65623595E-02 -0.30788412E-02  0.56199384E-02
 -0.72757700E-02  0.89889591E-02  0.56812301E-02
 -0.69180743E-02  0.71668998E-02  0.10272292E-01
 -0.43364667E-02  0.16768289E-02  0.58849575E-02
 -0.14563371E-01 -0.42023141E-02 -0.87540040E-03
  0.36491290E-02 -0.19438893E-02  0.65710009E-02
 -0.23486691E-03 -0.72963132E-02 -0.14947877E-02
 -0.30355220E-02  0.30565518E-02  0.16460797E-02
  0.17215646E-01  0.61556517E-02 -0.96357884E-02
  0.70146921E-02 -0.28151380E-03  0.51206565E-02
  0.35553220E-02  0.23159317E-02 -0.76010092E-03
  0.12958405E-01 -0.46401443E-02 -0.68463496E-02
  0.23217748E-02 -0.16853157E-01  0.23417223E-02
 -0.11312743E-01  0.10254922E-01 -0.40486170E-02
  0.74429121E-02 -0.53119029E-02 -0.35101064E-02
  0.43950887E-02 -0.96075922E-02  0.17274627E-01
  0.87046770E-02  0.44315519E-02 -0.36204425E-02
  0.10063146E-02 -0.17736779E-01 -0.36644415E-03
 -0.19030972E-02 -0.15789488E-01  0.37126709E-03
  0.31695299E-02  0.26858322E-02  0.10235309E-03
  0.20986859E-01 -0.69760614E-02 -0.13228140E-01
  0.41281080E-02  0.27850904E-02  0.65741873E-02
 -0.24472208E-03  0.75562034E-02 -0.10208865E-01
 -0.79756869E-02  0.27833137E-02  0.64185665E-02
  0.55704038E-02 -0.14675115E-02  0.85549005E-02
 -0.37450059E-02  0.45504301E-02 -0.65015602E-02
 -0.96916085E-02 -0.60839306E-02  0.95822850E-02
 -0.16527347E-02  0.10874727E-01  0.57376609E-02
 -0.65476148E-02 -0.28082059E-04  0.15398604E-01
 -0.44659753E-02 -0.22247554E-02 -0.61525747E-02
  0.63294047E-02  0.19529026E-02 -0.65494255E-02
 -0.48520394E-02 -0.11076355E-01  0.62988634E-02
  0.65902077E-02  0.10740773E-01  0.22309268E-02
 -0.13809899E-01 -0.59144433E-02 -0.12043658E-01
  0.93162105E-02  0.40994450E-02  0.79249833E-03
 -0.88049477E-02  0.81217515E-02  0.15901775E-02
  0.42816743E-02  0.54216184E-02  0.68266647E-02
 -0.71657023E-02 -0.18564626E-01 -0.32601886E-03
  0.21657165E-02 -0.48279379E-02  0.31010033E-02
 -0.17695515E-01  0.34464839E-02  0.41750561E-02
  0.70918341E-02 -0.62552300E-02  0.74768883E-02
  0.97642572E-02  0.30218646E-03 -0.86203511E-02
 -0.74312622E-02  0.33737633E-02 -0.15339511E-02
  0.28374336E-02 -0.14140198E-01  0.43979755E-02
 -0.98768077E-03 -0.49206038E-02  0.76019584E-02
  0.36570128E-02 -0.14049479E-01 -0.61056991E-02
  0.29836359E-02 -0.54980873E-02  0.12861143E-01
 -0.95469032E-02  0.17650648E-02 -0.68683848E-02
 -0.14004696E-01  0.44586641E-03 -0.20119136E-02
  0.84911374E-02 -0.10008433E-01 -0.10764747E-01
  0.46809155E-02  0.17483801E-01  0.17032048E-02
  0.15190470E-02  0.33992689E-02 -0.22659033E-02
 -0.17284523E-02 -0.84524324E-02 -0.24402317E-02
 -0.15838224E-01  0.84496970E-02 -0.11721273E-01
  0.31418151E-02 -0.81997838E-02 -0.11725016E-01
 -0.24581137E-02 -0.61096310E-02 -0.31396950E-02
  0.15247034E-02 -0.42300717E-03 -0.43574013E-02
 -0.38886379E-02  0.70371757E-02 -0.14827591E-01
 -0.70909595E-02  0.10533598E-01 -0.91516224E-02
 -0.45537238E-02 -0.69392678E-02  0.26749870E-01
  0.65427186E-02 -0.46041187E-03  0.27245312E-02
 -0.43827836E-02 -0.40115493E-02  0.20718026E-02
 -0.44025517E-02 -0.22680826E-02 -0.10210297E-01
  0.13568777E-01 -0.19039137E-02  0.84240498E-02
  0.44034987E-02  0.58488120E-02 -0.67497748E-02
 -0.12391299E-01  0.15579347E-02  0.23218277E-02
  0.77930504E-03 -0.31312614E-02  0.27977038E-02
  0.22107983E-03 -0.32550162E-02  0.74128887E-02
  0.73412355E-02 -0.12160448E-01 -0.98782014E-02
  0.94415386E-02  0.66679853E-02  0.10005562E-01
  0.53653478E-02  0.39042543E-02  0.44138269E-04
  0.63630718E-02  0.11877257E-01  0.10341352E-01
 -0.55743323E-02 -0.13267998E-01  0.11464604E-01
  0.49074189E-02  0.61624131E-02 -0.14386482E-01
 -0.30465777E-02  0.26019968E-02  0.12071096E-02
 -0.18804635E-03 -0.15881242E-02 -0.87518392E-02
 
           1
   3.00000000000000     
  0.24152898E+01 -0.10307428E-01 -0.11407733E-01  0.24261474E+01
  0.78526660E+00  0.88683563E+00  0.15558525E+00
  0.82859124E+00  0.89598728E+00  0.80597634E+00
  0.64626096E+00  0.12154670E+00  0.49023874E+00
  0.84481637E+00  0.26314634E+00  0.84529987E+00
  0.19923055E+00  0.95579113E+00  0.43839998E+00
  0.61293044E+00  0.79597338E+00  0.77093844E+00
  0.45102658E+00  0.57476272E+00  0.40317394E+00
  0.55122719E+00  0.56173555E+00  0.20955911E+00
  0.46722067E+00  0.98004192E+00  0.23416768E+00
  0.98872971E+00  0.83234864E-01  0.84214568E+00
  0.19131199E+00  0.18800959E+00  0.48799778E+00
  0.86599498E+00  0.41584482E+00  0.45447687E+00
  0.67268693E-01  0.30768374E+00  0.82550804E+00
  0.77023843E+00  0.30753650E+00  0.64727009E+00
  0.88552650E+00  0.14295791E+00  0.45302446E+00
  0.97731437E+00  0.97321614E+00  0.43239212E+00
  0.66521416E-01  0.85292323E-01  0.64784469E+00
  0.20816826E+00  0.29209076E+00  0.42644142E-01
  0.43572032E+00  0.21243146E+00  0.45287957E+00
  0.57976205E+00  0.76856026E+00  0.19391485E+00
  0.54097579E+00  0.63330083E+00  0.96201453E+00
  0.98964408E+00  0.31075533E+00  0.61113823E+00
  0.67810732E+00  0.22264029E+00  0.31187376E-01
  0.34822590E+00  0.69031929E+00  0.23748143E+00
  0.84458322E+00  0.99245010E-01  0.19234161E+00
  0.92074964E-01  0.43685373E+00  0.16217729E+00
  0.28865954E+00  0.74252859E-01  0.64588264E-01
  0.79372453E-01  0.34225505E+00  0.36983891E+00
  0.31492478E+00  0.48850731E+00  0.11561748E+00
  0.64579104E+00  0.98730601E-01  0.82354299E+00
  0.59034599E+00  0.78811488E+00  0.46910218E+00
  0.22097382E+00  0.13356804E+00  0.85108364E+00
  0.18028466E+00  0.87646754E+00  0.26418199E-01
  0.80307804E-01  0.51261983E+00  0.47975938E+00
  0.28488916E+00  0.31741719E+00  0.24876847E+00
  0.97800887E+00  0.84564766E+00  0.98673384E+00
  0.43002398E+00  0.88637397E+00  0.57902699E-01
  0.73727418E+00  0.63361366E+00  0.10150055E+00
  0.10039803E+00  0.12924272E+00  0.30095252E+00
  0.58985668E+00  0.26471112E-01  0.67955448E-01
  0.77803601E+00  0.68385497E+00  0.89904321E+00
  0.37342919E+00  0.44407264E+00  0.69182342E+00
  0.17066838E-01  0.94013888E+00  0.21025202E+00
  0.93460560E+00  0.58182929E+00  0.62025968E+00
  0.55825901E+00  0.35855317E+00  0.56540798E+00
  0.16335264E+00  0.45066638E+00  0.66655292E+00
  0.92452980E+00  0.29949233E+00  0.25976691E+00
  0.50336651E+00  0.18102485E+00  0.67434216E+00
  0.43452964E+00  0.11259689E+00  0.88517139E+00
  0.80452704E+00  0.35067661E-01  0.96872108E+00
  0.38120801E+00  0.32413842E+00  0.89309246E+00
  0.22092374E+00  0.53894089E+00  0.31076818E+00
  0.13278967E+00  0.94740164E+00  0.77286645E+00
  0.96683240E+00  0.71534640E+00  0.79597269E+00
  0.50112852E+00  0.36181565E+00  0.31859925E+00
  0.97223569E+00  0.89081020E+00  0.62870096E+00
  0.11071329E+00  0.69207315E+00  0.60309422E+00
  0.69089340E+00  0.58417805E+00  0.38427057E+00
  0.11656123E+00  0.65715875E+00  0.31553388E-01
  0.60675127E+00  0.96246352E+00  0.62391471E+00
  0.64590087E+00  0.83828707E+00  0.97933589E+00
  0.31432644E+00  0.39106824E-01  0.65934754E+00
  0.73549277E+00  0.51169068E+00  0.59850676E+00
  0.95630799E+00  0.71936199E+00  0.16227099E+00
  0.50464489E+00  0.40895483E+00  0.51202207E-01
  0.22975265E+00  0.86046917E+00  0.22610780E+00
  0.91676175E+00  0.55895439E+00  0.29389709E+00
  0.27523772E+00  0.25481368E+00  0.68188213E+00
  0.84038101E+00  0.47532684E+00  0.79708106E+00
  0.79040324E+00  0.71775803E+00  0.64390664E+00
  0.59517797E+00  0.29790262E+00  0.82904676E+00
  0.25057507E+00  0.48408005E+00  0.87198504E+00
  0.19095246E+00  0.71368911E+00  0.81022739E+00
  0.55328636E+00  0.62063309E+00  0.59600715E+00
  0.69038768E+00  0.46374924E+00  0.97354921E+00
  0.36099897E+00  0.78237707E+00  0.44097696E+00
  0.33032438E+00  0.90757172E+00  0.85264746E+00
  0.30788781E+00  0.41032200E+00  0.46708467E+00
  0.91293814E+00  0.52152111E+00  0.58893081E-01
  0.60745848E+00  0.51341017E+00  0.78066289E+00
  0.71136997E+00  0.29535710E+00  0.40040278E+00
  0.10542899E+00  0.71675243E+00  0.38202715E+00
  0.84089635E+00  0.89540656E-01  0.66384115E+00
  0.32239583E+00  0.61376646E+00  0.57824499E+00
  0.44791270E+00  0.20740657E+00  0.12366092E+00
  0.62470585E+00  0.17422686E+00  0.24891387E+00
  0.33081600E+00  0.70939704E+00  0.15475544E-01
  0.75801964E+00  0.91377762E+00  0.50496201E+00
  0.41705381E+00  0.65984268E+00  0.79259858E+00
  0.67928547E+00  0.98043477E+00  0.30331912E+00
  0.45570952E+00  0.99797501E+00  0.45355031E+00
  0.72690434E+00  0.41583872E+00  0.20484318E+00
  0.45014783E+00  0.83437848E+00  0.65046095E+00
  0.93633604E+00  0.30773365E+00  0.45417608E-01
  0.78458622E+00  0.77007424E+00  0.32541018E+00
  0.48286488E-01  0.97730837E-01  0.64742035E-01
  0.39190661E-01  0.51126947E+00  0.90182611E+00
  0.92361731E+00  0.72833446E+00  0.48239426E+00
  0.24434344E+00  0.84402354E+00  0.60856924E+00
  0.31420783E+00  0.11146007E+00  0.27700501E+00
  0.00000000E+00  0.00000000E+00  0.00000000E+00
  0.00000000E+00  0.00000000E+00  0.00000000E+00
  0.00000000E+00  0.00000000E+00  0.00000000E+00
  0.00000000E+00  0.00000000E+00  0.00000000E+00
  0.00000000E+00  0.00000000E+00  0.00000000E+00
  0.00000000E+00  0.00000000E+00  0.00000000E+00
  0.00000000E+00  0.00000000E+00  0.00000000E+00
  0.00000000E+00  0.00000000E+00  0.00000000E+00
  0.00000000E+00  0.00000000E+00  0.00000000E+00
  0.00000000E+00  0.00000000E+00  0.00000000E+00
  0.00000000E+00  0.00000000E+00  0.00000000E+00
  0.00000000E+00  0.00000000E+00  0.00000000E+00
  0.00000000E+00  0.00000000E+00  0.00000000E+00
  0.00000000E+00  0.00000000E+00  0.00000000E+00
  0.00000000E+00  0.00000000E+00  0.00000000E+00
  0.00000000E+00  0.00000000E+00  0.00000000E+00
  0.00000000E+00  0.00000000E+00  0.00000000E+00
  0.00000000E+00  0.00000000E+00  0.00000000E+00
  0.00000000E+00  0.00000000E+00  0.00000000E+00
  0.00000000E+00  0.00000000E+00  0.00000000E+00
  0.00000000E+00  0.00000000E+00  0.00000000E+00
  0.00000000E+00  0.00000000E+00  0.00000000E+00
  0.00000000E+00  0.00000000E+00  0.00000000E+00
  0.00000000E+00  0.00000000E+00  0.00000000E+00
  0.00000000E+00  0.00000000E+00  0.00000000E+00
  0.00000000E+00  0.00000000E+00  0.00000000E+00
  0.00000000E+00  0.00000000E+00  0.00000000E+00
  0.00000000E+00  0.00000000E+00  0.00000000E+00
  0.00000000E+00  0.00000000E+00  0.00000000E+00
  0.00000000E+00  0.00000000E+00  0.00000000E+00
  0.00000000E+00  0.00000000E+00  0.00000000E+00
  0.00000000E+00  0.00000000E+00  0.00000000E+00
  0.00000000E+00  0.00000000E+00  0.00000000E+00
  0.00000000E+00  0.00000000E+00  0.00000000E+00
  0.00000000E+00  0.00000000E+00  0.00000000E+00
  0.00000000E+00  0.00000000E+00  0.00000000E+00
  0.00000000E+00  0.00000000E+00  0.00000000E+00
  0.00000000E+00  0.00000000E+00  0.00000000E+00
  0.00000000E+00  0.00000000E+00  0.00000000E+00
  0.00000000E+00  0.00000000E+00  0.00000000E+00
  0.00000000E+00  0.00000000E+00  0.00000000E+00
  0.00000000E+00  0.00000000E+00  0.00000000E+00
  0.00000000E+00  0.00000000E+00  0.00000000E+00
  0.00000000E+00  0.00000000E+00  0.00000000E+00
  0.00000000E+00  0.00000000E+00  0.00000000E+00
  0.00000000E+00  0.00000000E+00  0.00000000E+00
  0.00000000E+00  0.00000000E+00  0.00000000E+00
  0.00000000E+00  0.00000000E+00  0.00000000E+00
  0.00000000E+00  0.00000000E+00  0.00000000E+00
  0.00000000E+00  0.00000000E+00  0.00000000E+00
  0.00000000E+00  0.00000000E+00  0.00000000E+00
  0.00000000E+00  0.00000000E+00  0.00000000E+00
  0.00000000E+00  0.00000000E+00  0.00000000E+00
  0.00000000E+00  0.00000000E+00  0.00000000E+00
  0.00000000E+00  0.00000000E+00  0.00000000E+00
  0.00000000E+00  0.00000000E+00  0.00000000E+00
  0.00000000E+00  0.00000000E+00  0.00000000E+00
  0.00000000E+00  0.00000000E+00  0.00000000E+00
  0.00000000E+00  0.00000000E+00  0.00000000E+00
  0.00000000E+00  0.00000000E+00  0.00000000E+00
  0.00000000E+00  0.00000000E+00  0.00000000E+00
  0.00000000E+00  0.00000000E+00  0.00000000E+00
  0.00000000E+00  0.00000000E+00  0.00000000E+00
  0.00000000E+00  0.00000000E+00  0.00000000E+00
  0.00000000E+00  0.00000000E+00  0.00000000E+00
  0.00000000E+00  0.00000000E+00  0.00000000E+00
  0.00000000E+00  0.00000000E+00  0.00000000E+00
  0.00000000E+00  0.00000000E+00  0.00000000E+00
  0.00000000E+00  0.00000000E+00  0.00000000E+00
  0.00000000E+00  0.00000000E+00  0.00000000E+00
  0.00000000E+00  0.00000000E+00  0.00000000E+00
  0.00000000E+00  0.00000000E+00  0.00000000E+00
  0.00000000E+00  0.00000000E+00  0.00000000E+00
  0.00000000E+00  0.00000000E+00  0.00000000E+00
  0.00000000E+00  0.00000000E+00  0.00000000E+00
  0.00000000E+00  0.00000000E+00  0.00000000E+00
  0.00000000E+00  0.00000000E+00  0.00000000E+00
  0.00000000E+00  0.00000000E+00  0.00000000E+00
  0.00000000E+00  0.00000000E+00  0.00000000E+00
  0.00000000E+00  0.00000000E+00  0.00000000E+00
  0.00000000E+00  0.00000000E+00  0.00000000E+00
  0.00000000E+00  0.00000000E+00  0.00000000E+00
  0.00000000E+00  0.00000000E+00  0.00000000E+00
  0.00000000E+00  0.00000000E+00  0.00000000E+00
  0.00000000E+00  0.00000000E+00  0.00000000E+00
  0.00000000E+00  0.00000000E+00  0.00000000E+00
  0.00000000E+00  0.00000000E+00  0.00000000E+00
  0.00000000E+00  0.00000000E+00  0.00000000E+00
  0.00000000E+00  0.00000000E+00  0.00000000E+00
  0.00000000E+00  0.00000000E+00  0.00000000E+00
  0.00000000E+00  0.00000000E+00  0.00000000E+00
  0.00000000E+00  0.00000000E+00  0.00000000E+00
  0.00000000E+00  0.00000000E+00  0.00000000E+00
  0.00000000E+00  0.00000000E+00  0.00000000E+00
  0.00000000E+00  0.00000000E+00  0.00000000E+00
  0.00000000E+00  0.00000000E+00  0.00000000E+00
  0.00000000E+00  0.00000000E+00  0.00000000E+00
  0.00000000E+00  0.00000000E+00  0.00000000E+00
  0.00000000E+00  0.00000000E+00  0.00000000E+00
  0.00000000E+00  0.00000000E+00  0.00000000E+00
  0.00000000E+00  0.00000000E+00  0.00000000E+00
  0.00000000E+00  0.00000000E+00  0.00000000E+00
  0.00000000E+00  0.00000000E+00  0.00000000E+00
  0.00000000E+00  0.00000000E+00  0.00000000E+00
  0.00000000E+00  0.00000000E+00  0.00000000E+00
  0.00000000E+00  0.00000000E+00  0.00000000E+00
  0.00000000E+00  0.00000000E+00  0.00000000E+00
  0.00000000E+00  0.00000000E+00  0.00000000E+00
  0.00000000E+00  0.00000000E+00  0.00000000E+00
  0.00000000E+00  0.00000000E+00  0.00000000E+00
  0.00000000E+00  0.00000000E+00  0.00000000E+00
  0.00000000E+00  0.00000000E+00  0.00000000E+00
  0.00000000E+00  0.00000000E+00  0.00000000E+00
  0.00000000E+00  0.00000000E+00  0.00000000E+00
  0.00000000E+00  0.00000000E+00  0.00000000E+00
  0.00000000E+00  0.00000000E+00  0.00000000E+00
  0.00000000E+00  0.00000000E+00  0.00000000E+00
  0.00000000E+00  0.00000000E+00  0.00000000E+00
  0.00000000E+00  0.00000000E+00  0.00000000E+00
  0.00000000E+00  0.00000000E+00  0.00000000E+00
  0.00000000E+00  0.00000000E+00  0.00000000E+00
  0.00000000E+00  0.00000000E+00  0.00000000E+00
  0.00000000E+00  0.00000000E+00  0.00000000E+00
  0.00000000E+00  0.00000000E+00  0.00000000E+00
  0.00000000E+00  0.00000000E+00  0.00000000E+00
  0.00000000E+00  0.00000000E+00  0.00000000E+00
  0.00000000E+00  0.00000000E+00  0.00000000E+00
  0.00000000E+00  0.00000000E+00  0.00000000E+00
  0.00000000E+00  0.00000000E+00  0.00000000E+00
  0.00000000E+00  0.00000000E+00  0.00000000E+00
  0.00000000E+00  0.00000000E+00  0.00000000E+00
  0.00000000E+00  0.00000000E+00  0.00000000E+00
  0.00000000E+00  0.00000000E+00  0.00000000E+00
  0.00000000E+00  0.00000000E+00  0.00000000E+00
  0.00000000E+00  0.00000000E+00  0.00000000E+00
  0.00000000E+00  0.00000000E+00  0.00000000E+00
  0.00000000E+00  0.00000000E+00  0.00000000E+00
  0.00000000E+00  0.00000000E+00  0.00000000E+00
  0.00000000E+00  0.00000000E+00  0.00000000E+00
  0.00000000E+00  0.00000000E+00  0.00000000E+00
  0.00000000E+00  0.00000000E+00  0.00000000E+00
  0.00000000E+00  0.00000000E+00  0.00000000E+00
  0.00000000E+00  0.00000000E+00  0.00000000E+00
  0.00000000E+00  0.00000000E+00  0.00000000E+00
  0.00000000E+00  0.00000000E+00  0.00000000E+00
  0.00000000E+00  0.00000000E+00  0.00000000E+00
  0.00000000E+00  0.00000000E+00  0.00000000E+00
  0.00000000E+00  0.00000000E+00  0.00000000E+00
  0.00000000E+00  0.00000000E+00  0.00000000E+00
  0.00000000E+00  0.00000000E+00  0.00000000E+00
  0.00000000E+00  0.00000000E+00  0.00000000E+00
  0.00000000E+00  0.00000000E+00  0.00000000E+00
  0.00000000E+00  0.00000000E+00  0.00000000E+00
  0.00000000E+00  0.00000000E+00  0.00000000E+00
  0.00000000E+00  0.00000000E+00  0.00000000E+00
  0.00000000E+00  0.00000000E+00  0.00000000E+00
  0.00000000E+00  0.00000000E+00  0.00000000E+00
  0.00000000E+00  0.00000000E+00  0.00000000E+00
  0.00000000E+00  0.00000000E+00  0.00000000E+00
  0.00000000E+00  0.00000000E+00  0.00000000E+00
  0.00000000E+00  0.00000000E+00  0.00000000E+00
  0.00000000E+00  0.00000000E+00  0.00000000E+00
  0.00000000E+00  0.00000000E+00  0.00000000E+00
  0.00000000E+00  0.00000000E+00  0.00000000E+00
  0.00000000E+00  0.00000000E+00  0.00000000E+00
  0.00000000E+00  0.00000000E+00  0.00000000E+00
  0.00000000E+00  0.00000000E+00  0.00000000E+00
  0.00000000E+00  0.00000000E+00  0.00000000E+00
  0.00000000E+00  0.00000000E+00  0.00000000E+00
  0.00000000E+00  0.00000000E+00  0.00000000E+00
  0.00000000E+00  0.00000000E+00  0.00000000E+00
  0.00000000E+00  0.00000000E+00  0.00000000E+00
  0.00000000E+00  0.00000000E+00  0.00000000E+00
  0.00000000E+00  0.00000000E+00  0.00000000E+00
  0.00000000E+00  0.00000000E+00  0.00000000E+00
  0.00000000E+00  0.00000000E+00  0.00000000E+00
  0.00000000E+00  0.00000000E+00  0.00000000E+00
  0.00000000E+00  0.00000000E+00  0.00000000E+00
  0.00000000E+00  0.00000000E+00  0.00000000E+00
  0.00000000E+00  0.00000000E+00  0.00000000E+00
  0.00000000E+00  0.00000000E+00  0.00000000E+00
  0.00000000E+00  0.00000000E+00  0.00000000E+00
  0.00000000E+00  0.00000000E+00  0.00000000E+00
  0.00000000E+00  0.00000000E+00  0.00000000E+00
  0.00000000E+00  0.00000000E+00  0.00000000E+00
  0.00000000E+00  0.00000000E+00  0.00000000E+00
  0.00000000E+00  0.00000000E+00  0.00000000E+00
  0.00000000E+00  0.00000000E+00  0.00000000E+00
  0.00000000E+00  0.00000000E+00  0.00000000E+00
  0.00000000E+00  0.00000000E+00  0.00000000E+00
  0.00000000E+00  0.00000000E+00  0.00000000E+00
  0.00000000E+00  0.00000000E+00  0.00000000E+00
  0.00000000E+00  0.00000000E+00  0.00000000E+00
  0.00000000E+00  0.00000000E+00  0.00000000E+00
  0.00000000E+00  0.00000000E+00  0.00000000E+00
  0.00000000E+00  0.00000000E+00  0.00000000E+00
  0.00000000E+00  0.00000000E+00  0.00000000E+00
  0.00000000E+00  0.00000000E+00  0.00000000E+00
  0.00000000E+00  0.00000000E+00  0.00000000E+00
  0.00000000E+00  0.00000000E+00  0.00000000E+00
