Zr48 Al7 Cu42 Ag3
1.0
12.405841 0.000000 0.000000
0.000000 12.405841 0.000000
0.000000 0.000000 12.405841
Zr Al Cu Ag
48 7 42 3
direct
0.016178 0.693731 0.949196 Zr
0.030596 0.398125 0.421093 Zr
0.661439 0.130148 0.784440 Zr
0.873637 0.635292 0.954141 Zr
0.146805 0.029619 0.975058 Zr
0.635634 0.847295 0.173246 Zr
0.227084 0.080255 0.817340 Zr
0.072841 0.169894 0.358496 Zr
0.180516 0.721185 0.564550 Zr
0.990656 0.291641 0.302522 Zr
0.278630 0.803175 0.783832 Zr
0.499027 0.379951 0.443387 Zr
0.253212 0.993367 0.665561 Zr
0.142581 0.935347 0.518927 Zr
0.841998 0.782020 0.256919 Zr
0.577582 0.631692 0.382146 Zr
0.195672 0.321043 0.378958 Zr
1.000000 0.371182 0.089013 Zr
0.807506 0.489099 0.629912 Zr
0.765026 0.720672 0.856001 Zr
0.966026 0.902837 0.604609 Zr
0.937192 0.602246 0.820355 Zr
0.358932 0.985394 0.998079 Zr
0.787203 0.653822 0.554824 Zr
0.716659 0.210304 0.530149 Zr
0.084889 0.001341 0.648029 Zr
0.505222 0.322074 0.739952 Zr
0.773460 0.495122 0.469894 Zr
0.872582 0.886496 0.456466 Zr
0.414708 0.071446 0.404602 Zr
0.781299 0.513828 0.826736 Zr
0.032353 0.631806 0.705376 Zr
0.732273 0.890539 0.932010 Zr
0.765278 0.473866 0.303359 Zr
0.884852 0.797308 0.952270 Zr
0.944465 0.925666 0.167499 Zr
0.175113 0.427012 0.094606 Zr
0.142621 0.100120 0.533875 Zr
0.793371 0.340712 0.524540 Zr
0.278450 0.717459 0.054946 Zr
0.919464 0.209712 0.121171 Zr
0.438880 0.709920 0.361963 Zr
0.201275 0.187795 0.256475 Zr
0.696499 0.939752 0.482884 Zr
0.447743 0.369948 0.589082 Zr
0.318494 0.729250 0.465966 Zr
0.551047 0.369367 0.274685 Zr
0.908302 0.252014 0.975231 Zr
0.482764 0.941301 0.321295 Al
0.640444 0.398806 0.600789 Al
0.253008 0.860113 0.947108 Al
0.514425 0.783021 0.084863 Al
0.408912 0.218430 0.159784 Al
0.191097 0.447185 0.518632 Al
0.877876 0.218551 0.445381 Al
0.724669 0.646874 0.991845 Cu
0.937573 0.450408 0.535412 Cu
0.465517 0.795810 0.531271 Cu
0.317814 0.103497 0.552374 Cu
0.419496 0.529757 0.286962 Cu
0.801132 0.816494 0.589349 Cu
0.874816 0.388143 0.397033 Cu
0.357725 0.024885 0.164174 Cu
0.966647 0.471012 0.919659 Cu
0.511049 0.100693 0.071147 Cu
0.494779 0.093012 0.553180 Cu
0.840196 0.670679 0.714664 Cu
0.694868 0.910170 0.319232 Cu
0.754981 0.608597 0.236882 Cu
0.505536 0.795548 0.256611 Cu
0.346880 0.874531 0.243016 Cu
0.278105 0.488186 0.776724 Cu
0.782594 0.083271 0.435241 Cu
0.488266 0.933142 0.151367 Cu
0.273820 0.541216 0.960610 Cu
0.535250 0.643516 0.724852 Cu
0.681113 0.589562 0.677908 Cu
0.159742 0.656909 0.423127 Cu
0.442499 0.367483 0.158970 Cu
0.724431 0.790198 0.431550 Cu
0.815970 0.355692 0.711729 Cu
0.857873 0.143944 0.590204 Cu
0.602618 0.386161 0.053378 Cu
0.818914 0.983940 0.577164 Cu
0.322842 0.156648 0.721742 Cu
0.432731 0.422510 0.005126 Cu
0.964359 0.458305 0.273852 Cu
0.940445 0.033642 0.697126 Cu
0.959197 0.568886 0.069060 Cu
0.611874 0.521922 0.261083 Cu
0.288570 0.666608 0.311036 Cu
0.076454 0.548488 0.572026 Cu
0.840952 0.653956 0.113148 Cu
0.870560 0.169898 0.293364 Cu
0.704173 0.066517 0.104551 Cu
0.602216 0.072430 0.401463 Cu
0.156341 0.141703 0.697169 Cu
0.026195 0.704379 0.528244 Ag
0.012799 0.743019 0.356041 Ag
0.183692 0.578887 0.676570 Ag
