Nb40 Ni60
1.0
  13.6741207038232453    0.0000000000000000    0.0000000000000000
   0.0000000000000000   13.6741207038232453    0.0000000000000000
   0.0000000000000000    0.0000000000000000   13.6741207038232453
Nb Ni
40 60
direct
   0.6000000000000002    0.8000000000000000    0.4000000000000000 Nb
   0.6000000000000002    0.2000000000000000    0.0000000000000000 Nb
   0.4000000000000000    0.4000000000000000    0.6000000000000002 Nb
   0.6000000000000002    0.4000000000000000    0.0000000000000000 Nb
   0.0000000000000000    0.0000000000000000    0.0000000000000000 Nb
   0.8000000000000000    0.6000000000000002    0.6000000000000002 Nb
   0.4000000000000000    0.2000000000000000    0.6000000000000002 Nb
   0.0000000000000000    0.4000000000000000    0.8000000000000000 Nb
   0.0000000000000000    0.0000000000000000    0.8000000000000000 Nb
   0.8000000000000000    0.4000000000000000    0.0000000000000000 Nb
   0.6000000000000002    0.6000000000000002    0.8000000000000000 Nb
   0.8000000000000000    0.2000000000000000    0.8000000000000000 Nb
   0.2000000000000000    0.0000000000000000    0.0000000000000000 Nb
   0.4000000000000000    0.6000000000000002    0.4000000000000000 Nb
   0.2000000000000000    0.8000000000000000    0.2000000000000000 Nb
   0.8000000000000000    0.4000000000000000    0.4000000000000000 Nb
   0.0000000000000000    0.8000000000000000    0.4000000000000000 Nb
   0.6000000000000002    0.0000000000000000    0.0000000000000000 Nb
   0.2000000000000000    0.4000000000000000    0.6000000000000002 Nb
   0.2000000000000000    0.2000000000000000    0.8000000000000000 Nb
   0.4000000000000000    0.4000000000000000    0.4000000000000000 Nb
   0.8000000000000000    0.2000000000000000    0.6000000000000002 Nb
   0.8000000000000000    0.0000000000000000    0.0000000000000000 Nb
   0.0000000000000000    0.6000000000000002    0.0000000000000000 Nb
   0.4000000000000000    0.0000000000000000    0.2000000000000000 Nb
   0.2000000000000000    0.4000000000000000    0.4000000000000000 Nb
   0.2000000000000000    0.2000000000000000    0.2000000000000000 Nb
   0.4000000000000000    0.8000000000000000    0.8000000000000000 Nb
   0.2000000000000000    0.2000000000000000    0.0000000000000000 Nb
   0.0000000000000000    0.8000000000000000    0.2000000000000000 Nb
   0.0000000000000000    0.2000000000000000    0.8000000000000000 Nb
   0.8000000000000000    0.6000000000000002    0.2000000000000000 Nb
   0.0000000000000000    0.2000000000000000    0.6000000000000002 Nb
   0.8000000000000000    0.0000000000000000    0.8000000000000000 Nb
   0.0000000000000000    0.0000000000000000    0.2000000000000000 Nb
   0.8000000000000000    0.0000000000000000    0.2000000000000000 Nb
   0.6000000000000002    0.2000000000000000    0.2000000000000000 Nb
   0.2000000000000000    0.0000000000000000    0.2000000000000000 Nb
   0.2000000000000000    0.8000000000000000    0.8000000000000000 Nb
   0.6000000000000002    0.8000000000000000    0.8000000000000000 Nb
   0.4000000000000000    0.0000000000000000    0.8000000000000000 Ni
   0.2000000000000000    0.6000000000000002    0.6000000000000002 Ni
   0.2000000000000000    0.6000000000000002    0.4000000000000000 Ni
   0.2000000000000000    0.6000000000000002    0.2000000000000000 Ni
   0.4000000000000000    0.0000000000000000    0.6000000000000002 Ni
   0.4000000000000000    0.2000000000000000    0.8000000000000000 Ni
   0.2000000000000000    0.0000000000000000    0.8000000000000000 Ni
   0.4000000000000000    0.2000000000000000    0.4000000000000000 Ni
   0.0000000000000000    0.0000000000000000    0.6000000000000002 Ni
   0.6000000000000002    0.4000000000000000    0.2000000000000000 Ni
   0.0000000000000000    0.6000000000000002    0.8000000000000000 Ni
   0.4000000000000000    0.0000000000000000    0.4000000000000000 Ni
   0.6000000000000002    0.4000000000000000    0.6000000000000002 Ni
   0.8000000000000000    0.8000000000000000    0.8000000000000000 Ni
   0.0000000000000000    0.4000000000000000    0.4000000000000000 Ni
   0.6000000000000002    0.6000000000000002    0.4000000000000000 Ni
   0.0000000000000000    0.0000000000000000    0.4000000000000000 Ni
   0.6000000000000002    0.2000000000000000    0.4000000000000000 Ni
   0.4000000000000000    0.2000000000000000    0.0000000000000000 Ni
   0.4000000000000000    0.4000000000000000    0.8000000000000000 Ni
   0.2000000000000000    0.4000000000000000    0.8000000000000000 Ni
   0.8000000000000000    0.6000000000000002    0.8000000000000000 Ni
   0.4000000000000000    0.6000000000000002    0.6000000000000002 Ni
   0.8000000000000000    0.4000000000000000    0.2000000000000000 Ni
   0.2000000000000000    0.4000000000000000    0.2000000000000000 Ni
   0.0000000000000000    0.6000000000000002    0.4000000000000000 Ni
   0.2000000000000000    0.6000000000000002    0.0000000000000000 Ni
   0.4000000000000000    0.8000000000000000    0.6000000000000002 Ni
   0.8000000000000000    0.2000000000000000    0.4000000000000000 Ni
   0.2000000000000000    0.8000000000000000    0.6000000000000002 Ni
   0.8000000000000000    0.6000000000000002    0.4000000000000000 Ni
   0.0000000000000000    0.8000000000000000    0.0000000000000000 Ni
   0.6000000000000002    0.8000000000000000    0.6000000000000002 Ni
   0.4000000000000000    0.8000000000000000    0.0000000000000000 Ni
   0.2000000000000000    0.8000000000000000    0.0000000000000000 Ni
   0.4000000000000000    0.6000000000000002    0.8000000000000000 Ni
   0.4000000000000000    0.0000000000000000    0.0000000000000000 Ni
   0.6000000000000002    0.0000000000000000    0.6000000000000002 Ni
   0.8000000000000000    0.8000000000000000    0.2000000000000000 Ni
   0.6000000000000002    0.8000000000000000    0.2000000000000000 Ni
   0.2000000000000000    0.0000000000000000    0.4000000000000000 Ni
   0.6000000000000002    0.0000000000000000    0.2000000000000000 Ni
   0.6000000000000002    0.0000000000000000    0.4000000000000000 Ni
   0.0000000000000000    0.2000000000000000    0.2000000000000000 Ni
   0.6000000000000002    0.0000000000000000    0.8000000000000000 Ni
   0.6000000000000002    0.4000000000000000    0.8000000000000000 Ni
   0.8000000000000000    0.4000000000000000    0.8000000000000000 Ni
   0.6000000000000002    0.2000000000000000    0.6000000000000002 Ni
   0.8000000000000000    0.4000000000000000    0.6000000000000002 Ni
   0.6000000000000002    0.2000000000000000    0.8000000000000000 Ni
   0.8000000000000000    0.8000000000000000    0.4000000000000000 Ni
   0.0000000000000000    0.6000000000000002    0.2000000000000000 Ni
   0.2000000000000000    0.0000000000000000    0.6000000000000002 Ni
   0.8000000000000000    0.0000000000000000    0.6000000000000002 Ni
   0.0000000000000000    0.8000000000000000    0.8000000000000000 Ni
   0.4000000000000000    0.4000000000000000    0.0000000000000000 Ni
   0.0000000000000000    0.4000000000000000    0.0000000000000000 Ni
   0.0000000000000000    0.8000000000000000    0.6000000000000002 Ni
   0.2000000000000000    0.2000000000000000    0.6000000000000002 Ni
   0.6000000000000002    0.6000000000000002    0.0000000000000000 Ni
