Ni80 P20
1.0
10.399528 0.000000 0.000000
0.000000 10.399528 0.000000
0.000000 0.000000 10.399528
Ni P
80 20
direct
0.333333 0.444444 0.333333 Ni
0.444444 0.111111 0.111111 Ni
1.000000 0.444444 0.111111 Ni
0.444444 0.666667 0.222222 Ni
0.777774 0.444444 0.111111 Ni
0.222222 0.777774 0.111111 Ni
0.111111 0.222222 0.111111 Ni
0.555554 0.444444 0.333333 Ni
0.111111 0.666667 0.333333 Ni
0.111111 0.222222 0.333333 Ni
0.444444 0.444444 0.222222 Ni
0.222222 0.666667 0.222222 Ni
0.222222 0.555554 0.111111 Ni
0.666667 0.555554 0.111111 Ni
0.777774 0.666667 0.333333 Ni
1.000000 0.888887 0.111111 Ni
0.888887 0.666667 0.222222 Ni
0.222222 0.111111 0.111111 Ni
0.666667 0.666667 0.222222 Ni
0.111111 0.444444 0.111111 Ni
0.111111 0.444444 0.333333 Ni
0.111111 0.777774 0.222222 Ni
1.000000 0.444444 0.333333 Ni
0.888887 0.555554 0.333333 Ni
1.000000 0.333333 0.222222 Ni
0.777774 0.222222 0.111111 Ni
0.777774 0.777774 0.222222 Ni
0.777774 0.555554 0.222222 Ni
0.777774 0.444444 0.333333 Ni
0.444444 0.555554 0.111111 Ni
1.000000 0.222222 0.333333 Ni
0.555554 0.666667 0.111111 Ni
0.888887 1.000000 0.111111 Ni
0.333333 0.888887 0.111111 Ni
0.333333 0.777774 0.222222 Ni
0.222222 0.333333 0.111111 Ni
0.444444 0.777774 0.111111 Ni
0.555554 0.777774 0.222222 Ni
0.666667 0.111111 0.333333 Ni
0.666667 1.000000 0.111111 Ni
1.000000 0.666667 0.111111 Ni
0.333333 0.222222 0.111111 Ni
0.777774 0.666667 0.111111 Ni
0.222222 0.222222 0.222222 Ni
0.666667 0.333333 0.111111 Ni
0.222222 0.555554 0.333333 Ni
0.555554 0.666667 0.333333 Ni
0.777774 0.222222 0.333333 Ni
0.666667 0.222222 0.222222 Ni
0.555554 0.888887 0.111111 Ni
0.666667 0.555554 0.333333 Ni
0.555554 0.555554 0.222222 Ni
0.444444 0.222222 0.222222 Ni
0.555554 0.444444 0.111111 Ni
0.222222 0.777774 0.333333 Ni
0.444444 0.333333 0.333333 Ni
1.000000 0.222222 0.111111 Ni
0.444444 1.000000 0.111111 Ni
0.111111 0.111111 0.222222 Ni
0.444444 0.777774 0.333333 Ni
0.111111 0.888887 0.111111 Ni
0.888887 0.444444 0.222222 Ni
0.555554 0.222222 0.333333 Ni
0.333333 0.666667 0.333333 Ni
1.000000 0.111111 0.222222 Ni
0.555554 0.333333 0.222222 Ni
0.666667 0.777774 0.333333 Ni
0.555554 0.222222 0.111111 Ni
0.333333 0.111111 0.222222 Ni
0.444444 0.111111 0.333333 Ni
0.111111 0.666667 0.111111 Ni
0.888887 0.777774 0.111111 Ni
0.333333 0.333333 0.222222 Ni
0.222222 0.333333 0.333333 Ni
0.888887 0.222222 0.222222 Ni
0.666667 0.111111 0.111111 Ni
0.888887 0.333333 0.333333 Ni
0.333333 0.222222 0.333333 Ni
0.666667 0.777774 0.111111 Ni
0.777774 0.111111 0.222222 Ni
0.222222 0.111111 0.333333 P
0.111111 0.555554 0.222222 P
0.555554 0.111111 0.222222 P
0.111111 0.333333 0.222222 P
0.666667 0.444444 0.222222 P
0.888887 0.111111 0.111111 P
0.888887 0.555554 0.111111 P
1.000000 0.555554 0.222222 P
0.888887 0.333333 0.111111 P
0.222222 1.000000 0.111111 P
0.888887 0.111111 0.333333 P
0.444444 0.555554 0.333333 P
0.444444 0.333333 0.111111 P
0.333333 0.666667 0.111111 P
0.777774 0.888887 0.111111 P
0.777774 0.333333 0.222222 P
0.333333 0.444444 0.111111 P
0.333333 0.555554 0.222222 P
0.666667 0.333333 0.333333 P
0.222222 0.444444 0.222222 P
