Si                                      
   1.00000000000000     
    10.2114949999999993    0.0000000000000000    0.0000000000000000
     0.0000000000000000   10.2114949999999993    0.0000000000000000
     0.0000000000000000    0.0000000000000000   10.2114949999999993
   Si
   100
Direct
  0.1140510000000035  0.0795564000000013  0.9282859999999999
  0.4243239999999986  0.4341020000000029  0.1653650000000013
  0.3264259999999979  0.3026940000000025  0.9601159999999993
  0.8885569999999987  0.3633370000000014  0.1150799999999990
  0.4930939999999993  0.9826150000000027  0.7141159999999971
  0.6201530000000020  0.0292123999999987  0.2364279999999965
  0.8061340000000001  0.4315360000000013  0.6773659999999992
  0.2561419999999970  0.4091409999999982  0.4538459999999986
  0.3444780000000023  0.9378019999999978  0.2558829999999972
  0.7334910000000008  0.0110215999999994  0.7464030000000008
  0.8234739999999974  0.0450973000000019  0.5447360000000003
  0.1840120000000027  0.2201919999999973  0.7976359999999971
  0.9275939999999991  0.1253469999999979  0.8069100000000020
  0.6178140000000027  0.3998619999999988  0.2540139999999980
  0.0697570000000027  0.4685070000000024  0.3152070000000009
  0.2703070000000025  0.9217420000000018  0.0425802000000033
  0.9948520000000016  0.2535760000000025  0.3061459999999983
  0.4645409999999970  0.5421169999999975  0.3530689999999979
  0.2222170000000006  0.7131949999999989  0.0082170000000019
  0.6811590000000010  0.8174119999999974  0.1498869999999997
  0.8297779999999975  0.7483939999999976  0.7527729999999977
  0.4363630000000001  0.9532560000000032  0.5142039999999994
  0.8786640000000006  0.9194310000000030  0.9015089999999972
  0.4148089999999982  0.7348280000000003  0.1704190000000025
  0.7757339999999999  0.1933939999999978  0.2554739999999995
  0.9489179999999990  0.5386140000000026  0.9743569999999977
  0.9361930000000029  0.0449168999999969  0.3393840000000026
  0.3379279999999980  0.2141810000000035  0.5709489999999988
  0.4280210000000011  0.2337559999999996  0.7881550000000033
  0.6709529999999972  0.8561049999999994  0.5834059999999965
  0.3928960000000004  0.7616739999999993  0.7016059999999982
  0.2695039999999977  0.1331890000000016  0.0955457999999965
  0.3230629999999977  0.5871660000000034  0.5893840000000026
  0.5900970000000001  0.3585220000000007  0.7224119999999985
  0.2419480000000007  0.0434520000000020  0.4682570000000013
  0.0293040999999974  0.9246529999999993  0.7370209999999986
  0.4338479999999976  0.1094930000000005  0.3638860000000008
  0.8933760000000035  0.8419829999999990  0.5463129999999978
  0.2095610000000008  0.3701190000000025  0.1571009999999973
  0.6874340000000032  0.9603189999999984  0.9791390000000035
  0.0056130400000001  0.4816780000000023  0.5347480000000004
  0.1600150000000014  0.4182550000000020  0.6782479999999964
  0.2318870000000004  0.2196870000000004  0.3220820000000018
  0.0546527999999995  0.3351990000000029  0.9618210000000005
  0.4433059999999998  0.7742549999999966  0.9190070000000006
  0.5482939999999985  0.3701220000000021  0.9577179999999998
  0.0877527999999970  0.6100199999999987  0.1330779999999976
  0.6473230000000001  0.1749269999999967  0.8599310000000031
  0.1858239999999967  0.7797150000000030  0.2459419999999994
  0.5867470000000026  0.6085289999999972  0.1786230000000018
  0.2087760000000003  0.6208379999999991  0.7761769999999970
  0.6958089999999970  0.6688299999999998  0.3471329999999995
  0.2348229999999987  0.8585199999999986  0.8272419999999983
  0.8649470000000008  0.7329399999999993  0.0096985300000014
  0.6296609999999987  0.0255261000000004  0.4564909999999998
  0.8997940000000000  0.2855410000000020  0.5104660000000010
  0.3486830000000012  0.4450760000000002  0.7828700000000026
  0.9857930000000010  0.8003459999999976  0.2177539999999993
  0.2189359999999994  0.8178699999999992  0.5866010000000017
  0.8443290000000019  0.9657750000000007  0.1739400000000018
  0.6414630000000017  0.6694419999999965  0.9829039999999978
  0.6210329999999971  0.8084539999999976  0.7916400000000010
  0.9259240000000020  0.6468849999999975  0.3975440000000035
  0.0438937999999993  0.9030270000000016  0.0390489999999986
  0.3626959999999997  0.7413850000000011  0.3940789999999978
  0.1240560000000031  0.2403240000000011  0.4903059999999968
  0.1489010000000022  0.0255431000000002  0.2499400000000023
  0.8194329999999965  0.4240870000000001  0.3216979999999978
  0.6510060000000024  0.4607719999999986  0.4994220000000027
  0.0406965999999969  0.6859230000000025  0.6092370000000003
  0.8669769999999986  0.1189439999999991  0.0211705999999978
  0.9926779999999980  0.5387339999999980  0.7603369999999998
  0.9974819999999980  0.3081150000000008  0.7162840000000017
  0.0370451000000003  0.1864580000000018  0.1192899999999995
  0.1862080000000006  0.4797089999999997  0.9594949999999969
  0.1668179999999992  0.6476320000000015  0.4477509999999967
  0.3889100000000028  0.0431797999999972  0.9036419999999978
  0.5240569999999991  0.5784620000000018  0.7572720000000004
  0.7723039999999983  0.6431850000000026  0.5498639999999995
  0.7480970000000013  0.5534290000000013  0.8385669999999976
  0.8547039999999981  0.6094020000000029  0.1871689999999973
  0.7774870000000007  0.8537889999999990  0.3690229999999985
  0.7635590000000008  0.2145439999999965  0.6714429999999965
  0.5602050000000034  0.1586640000000017  0.6416910000000016
  0.4624999999999986  0.2079700000000031  0.1436149999999969
  0.6647999999999996  0.2280829999999980  0.0807367999999968
  0.4980529999999987  0.9613399999999999  0.0712879000000015
  0.0923133000000007  0.8912040000000019  0.4233559999999983
  0.0560102000000029  0.0772546999999975  0.6061150000000026
  0.7077979999999968  0.4788769999999971  0.0573899999999981
  0.2679979999999986  0.0518438000000003  0.7274049999999974
  0.6633190000000013  0.2569760000000016  0.4476009999999988
  0.2748139999999992  0.5917930000000027  0.2404099999999971
  0.4069140000000004  0.5720079999999967  0.9705539999999999
  0.4306059999999974  0.3249849999999981  0.3828290000000010
  0.0391217999999967  0.7346300000000028  0.8711989999999972
  0.8274820000000034  0.3388210000000029  0.9059919999999977
  0.5482009999999988  0.8421909999999997  0.3395750000000035
  0.4386900000000011  0.4225250000000003  0.5663460000000029
  0.5318090000000026  0.6702470000000034  0.5246179999999967
 
  0.00000000E+00  0.00000000E+00  0.00000000E+00
  0.00000000E+00  0.00000000E+00  0.00000000E+00
  0.00000000E+00  0.00000000E+00  0.00000000E+00
  0.00000000E+00  0.00000000E+00  0.00000000E+00
  0.00000000E+00  0.00000000E+00  0.00000000E+00
  0.00000000E+00  0.00000000E+00  0.00000000E+00
  0.00000000E+00  0.00000000E+00  0.00000000E+00
  0.00000000E+00  0.00000000E+00  0.00000000E+00
  0.00000000E+00  0.00000000E+00  0.00000000E+00
  0.00000000E+00  0.00000000E+00  0.00000000E+00
  0.00000000E+00  0.00000000E+00  0.00000000E+00
  0.00000000E+00  0.00000000E+00  0.00000000E+00
  0.00000000E+00  0.00000000E+00  0.00000000E+00
  0.00000000E+00  0.00000000E+00  0.00000000E+00
  0.00000000E+00  0.00000000E+00  0.00000000E+00
  0.00000000E+00  0.00000000E+00  0.00000000E+00
  0.00000000E+00  0.00000000E+00  0.00000000E+00
  0.00000000E+00  0.00000000E+00  0.00000000E+00
  0.00000000E+00  0.00000000E+00  0.00000000E+00
  0.00000000E+00  0.00000000E+00  0.00000000E+00
  0.00000000E+00  0.00000000E+00  0.00000000E+00
  0.00000000E+00  0.00000000E+00  0.00000000E+00
  0.00000000E+00  0.00000000E+00  0.00000000E+00
  0.00000000E+00  0.00000000E+00  0.00000000E+00
  0.00000000E+00  0.00000000E+00  0.00000000E+00
  0.00000000E+00  0.00000000E+00  0.00000000E+00
  0.00000000E+00  0.00000000E+00  0.00000000E+00
  0.00000000E+00  0.00000000E+00  0.00000000E+00
  0.00000000E+00  0.00000000E+00  0.00000000E+00
  0.00000000E+00  0.00000000E+00  0.00000000E+00
  0.00000000E+00  0.00000000E+00  0.00000000E+00
  0.00000000E+00  0.00000000E+00  0.00000000E+00
  0.00000000E+00  0.00000000E+00  0.00000000E+00
  0.00000000E+00  0.00000000E+00  0.00000000E+00
  0.00000000E+00  0.00000000E+00  0.00000000E+00
  0.00000000E+00  0.00000000E+00  0.00000000E+00
  0.00000000E+00  0.00000000E+00  0.00000000E+00
  0.00000000E+00  0.00000000E+00  0.00000000E+00
  0.00000000E+00  0.00000000E+00  0.00000000E+00
  0.00000000E+00  0.00000000E+00  0.00000000E+00
  0.00000000E+00  0.00000000E+00  0.00000000E+00
  0.00000000E+00  0.00000000E+00  0.00000000E+00
  0.00000000E+00  0.00000000E+00  0.00000000E+00
  0.00000000E+00  0.00000000E+00  0.00000000E+00
  0.00000000E+00  0.00000000E+00  0.00000000E+00
  0.00000000E+00  0.00000000E+00  0.00000000E+00
  0.00000000E+00  0.00000000E+00  0.00000000E+00
  0.00000000E+00  0.00000000E+00  0.00000000E+00
  0.00000000E+00  0.00000000E+00  0.00000000E+00
  0.00000000E+00  0.00000000E+00  0.00000000E+00
  0.00000000E+00  0.00000000E+00  0.00000000E+00
  0.00000000E+00  0.00000000E+00  0.00000000E+00
  0.00000000E+00  0.00000000E+00  0.00000000E+00
  0.00000000E+00  0.00000000E+00  0.00000000E+00
  0.00000000E+00  0.00000000E+00  0.00000000E+00
  0.00000000E+00  0.00000000E+00  0.00000000E+00
  0.00000000E+00  0.00000000E+00  0.00000000E+00
  0.00000000E+00  0.00000000E+00  0.00000000E+00
  0.00000000E+00  0.00000000E+00  0.00000000E+00
  0.00000000E+00  0.00000000E+00  0.00000000E+00
  0.00000000E+00  0.00000000E+00  0.00000000E+00
  0.00000000E+00  0.00000000E+00  0.00000000E+00
  0.00000000E+00  0.00000000E+00  0.00000000E+00
  0.00000000E+00  0.00000000E+00  0.00000000E+00
  0.00000000E+00  0.00000000E+00  0.00000000E+00
  0.00000000E+00  0.00000000E+00  0.00000000E+00
  0.00000000E+00  0.00000000E+00  0.00000000E+00
  0.00000000E+00  0.00000000E+00  0.00000000E+00
  0.00000000E+00  0.00000000E+00  0.00000000E+00
  0.00000000E+00  0.00000000E+00  0.00000000E+00
  0.00000000E+00  0.00000000E+00  0.00000000E+00
  0.00000000E+00  0.00000000E+00  0.00000000E+00
  0.00000000E+00  0.00000000E+00  0.00000000E+00
  0.00000000E+00  0.00000000E+00  0.00000000E+00
  0.00000000E+00  0.00000000E+00  0.00000000E+00
  0.00000000E+00  0.00000000E+00  0.00000000E+00
  0.00000000E+00  0.00000000E+00  0.00000000E+00
  0.00000000E+00  0.00000000E+00  0.00000000E+00
  0.00000000E+00  0.00000000E+00  0.00000000E+00
  0.00000000E+00  0.00000000E+00  0.00000000E+00
  0.00000000E+00  0.00000000E+00  0.00000000E+00
  0.00000000E+00  0.00000000E+00  0.00000000E+00
  0.00000000E+00  0.00000000E+00  0.00000000E+00
  0.00000000E+00  0.00000000E+00  0.00000000E+00
  0.00000000E+00  0.00000000E+00  0.00000000E+00
  0.00000000E+00  0.00000000E+00  0.00000000E+00
  0.00000000E+00  0.00000000E+00  0.00000000E+00
  0.00000000E+00  0.00000000E+00  0.00000000E+00
  0.00000000E+00  0.00000000E+00  0.00000000E+00
  0.00000000E+00  0.00000000E+00  0.00000000E+00
  0.00000000E+00  0.00000000E+00  0.00000000E+00
  0.00000000E+00  0.00000000E+00  0.00000000E+00
  0.00000000E+00  0.00000000E+00  0.00000000E+00
  0.00000000E+00  0.00000000E+00  0.00000000E+00
  0.00000000E+00  0.00000000E+00  0.00000000E+00
  0.00000000E+00  0.00000000E+00  0.00000000E+00
  0.00000000E+00  0.00000000E+00  0.00000000E+00
  0.00000000E+00  0.00000000E+00  0.00000000E+00
  0.00000000E+00  0.00000000E+00  0.00000000E+00
  0.00000000E+00  0.00000000E+00  0.00000000E+00
