Si 
 1.0000000000000000
    10.2114949999999993    0.0000000000000000    0.0000000000000000
     0.0000000000000000   10.2114949999999993    0.0000000000000000
     0.0000000000000000    0.0000000000000000   10.2114949999999993
 100
Cartesian
  1.1646312162449999  0.8123897808180000  9.4791878475699995
  4.3329824043799992  4.4328304024899996  1.6886238706750001
  3.3332974668699995  3.0909582675300000  9.8042197334199983
  9.0734953627150006  3.7102139588149998  1.1751388446000000
  5.0352269155299991 10.0339681594249992  7.2921919634199996
  6.3326892587349990  0.2983022765380000  2.4142833398599999
  8.2318333103299999  4.4066277063199992  6.9169195221699997
  2.6155927522899995  4.1779412757949999  4.6344461597700004
  3.5176353746099998  9.5763604339899988  2.6129479750850000
  7.4900396790449992  0.1125470132920000  7.6218905024849999
  8.4089006336299992  0.4605108534635000  5.5625689403199994
  1.8790376179399999  2.2484895070399999  8.1450560258199989
  9.4721214930300004  1.2799802637649997  8.2397574304500001
  6.3088045719299997  4.0831888136899996  2.5938626909300000
  0.7123232567150000  4.7841568879649996  3.2187347044650001
  2.7602385789650001  9.4123638242899990  0.4348074993989999
 10.1589262237399982  2.5893900561200001  3.1262083482699996
  4.7436580987949997  5.5358250349149989  3.6053623281550000
  2.2691677844150000  7.2827871765249999  0.0839078544150000
  6.9556517227049994  8.3469985509400004  1.5305703510649997
  8.4732738981099995  7.6422215890299992  7.6869377256349996
  4.4559185926849993  9.7341688777199984  5.2507915749799992
  8.9724730426799990  9.3887650593449994  9.2057546459549986
  4.2358200294549997  7.5036924478599998  1.7402327664049997
  7.9214038623300000  1.9748418640300001  2.6087714736299996
  9.6898714124099996  5.5000541679300001  9.9496416337150002
  9.5599301385350000  0.4586686997655000  3.4656180190799999
  3.4507500823599999  2.1871082105949999  5.8302428587549997
  4.3707343013949993  2.3869982252199997  8.0482408417250006
  6.8514332047349997  8.7421119269749994  5.9574474519699994
  4.0120555395200004  7.7778302426299994  7.1644461609699990
  2.7520387484800000  1.3600588075550000  0.9756654589710000
  3.2989562091849995  5.9958426731699994  6.0184917690799997
  6.0257725650149991  3.6610456103900000  7.3769065259400000
  2.4706507922599998  0.4437098807400000  4.7816040142149996
  0.2992386706295000  9.4420894862349982  7.5260862563949997
  4.4302366827599995  1.1180872220349998  3.7158200695699994
  9.1227045571199987  8.5979051945849996  5.5786724679350002
  2.1399311036949999  3.7794683179049997  1.6042360759949998
  7.0197288538299993  9.8062926669049997  9.9984730028049995
  0.0573175298948000  4.9186524886099994  5.4605765282599998
  1.6339923724249998  4.2710088412250000  6.9259260607599993
  2.3679129410649997  2.2433327020649996  3.2889387325899997
  0.5580867939360000  3.4228829125050000  9.8216303323949994
  4.5268170024699996  7.9063010612249993  9.3844353854650002
  5.5989014395299987  3.7794989523900000  9.7797325684099992
  0.8960872784360000  6.2292161798999999  1.3589253316099998
  6.6101355778849991  1.7862661858650000  8.7811811068449988
  1.8975408468799997  7.9620558239249997  2.5114355032900000
  5.9915640567650001  6.2139908408549998  1.8240078713849999
  2.1319150801199998  6.3396841328099995  7.9259275546149999
  7.1052501244549999  6.8297542008500001  3.5447468938350002
  2.3978938903849998  8.7667726873999996  8.4473775467899994
  8.8324019657649995  7.4844131452999996  0.0990364906023500
  6.4297801531949998  0.2606596425195000  4.6614555640449993
  9.1882419320299995  2.9158004937949995  5.2126210066699992
  3.5605747110850001  4.5448913486200002  7.9942730906499992
 10.0664202905349995  8.1727291772699999  2.2235938822299999
  2.2356638693199997  8.3516754156499999  5.9900731784949999
  8.6218613618550002  9.8620065836249999  1.7761874403000000
  6.5502962171849992  6.8360036357899991 10.0369192814799995
  6.3416753743349989  8.2555239787300003  8.0838279017999994
  9.4550682963799986  6.6056629430750000  4.0595185682799997
  0.4482213192309999  9.2212556953650004  0.3987486682550000
  3.7036683905199999  7.5706492205749987  4.0241357381049996
  1.2667972237199998  2.4540673243800000  5.0067572674700003
  1.5205018169950000  0.2608332379345000  2.5522610602999998
  8.3676359823349991  4.3305622800649992  3.2850175185099997
  6.6477445139699993  4.7051709741399996  5.0998452558899992
  0.4155731274170000  7.0042992848849988  6.2212205793150002
  8.8531313006149990  1.2145960612799998  0.2161834760470000
 10.1367264336099989  5.5012795473300002  7.7641774738149998
 10.1857824555899992  3.1463147819250001  7.3143304845800001
  0.3782858534244999  1.9040149347099999  1.2181292385499998
  1.9014620609599999  4.8985460549549993  9.7978783950249984
  1.7034611729099998  6.6132909298399998  4.5722070977450002
  3.9713525204499995  0.4409303118010000  9.2275357647899980
  5.3514054352149998  5.9069618206900003  7.7328792416399992
  7.8863784344799992  6.5678804115749996  5.6149334866800000
  7.6391887750149996  5.6513374663549989  8.5630227276649986
  8.7278056224800000  6.2229054759899993  1.9112753076550000
  7.9393046130649996  8.7184621045549999  3.7682765193849996
  7.7970789107049994  2.1908149832800001  6.8564368372850000
  5.7205305564749995  1.6201966426799999  6.5526244380450001
  4.7228164374999997  2.1236846151499997  1.4665238544249999
  6.7886018759999986  2.3290684140850000  0.8244434295159999
  5.0858657192349996  9.8167186032999982  0.7279560344104999
  0.9426568013834999  9.1005251899799990  4.3230976772199998
  0.5719478772490000  0.7888859827764999  6.1893402919249993
  7.2276757380100003  4.8900500911149996  0.5860376980499999
  2.7366602370100002  0.5294027044810000  7.4278925204749990
  6.7734786519049992  2.6241091391199998  4.5706753734949999
  2.8062617869299999  6.0430912605349993  2.4549455129500002
  4.1552002764299996  5.8410568319599996  9.9108073182299989
  4.3971310159699994  3.3185827025750001  3.9092564193549997
  0.3994920650909999  7.5016705718499992  8.8962442325049995
  8.4498283055899996  3.4598689473949995  9.2515327780399996
  5.5979517704950004  8.6000291855449991  3.4675684146250001
  4.4796807415500002  4.3146119248749999  5.7832393472699994
  5.4305649444549990  6.8442238892649998  5.3571340839100001
