Si                                      
   1.00000000000000     
    10.2114949999999993    0.0000000000000000    0.0000000000000000
     0.0000000000000000   10.2114949999999993    0.0000000000000000
     0.0000000000000000    0.0000000000000000   10.2114949999999993
   Si
   100
Direct
  0.1183850000000035  0.5280619999999985  0.4177320000000009
  0.5821210000000008  0.1374300000000019  0.5103089999999995
  0.1696870000000033  0.5417330000000007  0.8151160000000033
  0.6926860000000019  0.5313080000000028  0.5126660000000030
  0.6094099999999969  0.8291230000000027  0.8856070000000003
  0.0154835000000020  0.7153199999999984  0.7949079999999995
  0.5452080000000024  0.6018510000000035  0.9482410000000030
  0.6918750000000031  0.4404329999999987  0.9148009999999971
  0.6875709999999984  0.7284229999999994  0.1025610000000015
  0.9002819999999971  0.5478340000000017  0.4476900000000015
  0.9401805999999979  0.2153429999999972  0.2463210000000018
  0.3286659999999983  0.4333209999999994  0.1718180000000018
  0.8757689999999982  0.7598020000000005  0.3920749999999984
  0.5300849999999997  0.8853629999999981  0.0852035999999998
  0.8445570000000018  0.0250282000000013  0.6655009999999990
  0.0681664999999967  0.2973380000000034  0.8208350000000024
  0.1861150000000009  0.9041799999999967  0.5467000000000013
  0.0146731999999972  0.9546860000000024  0.4046579999999977
  0.7091250000000002  0.9504859999999979  0.5051119999999969
  0.7109420000000028  0.8138300000000029  0.6746860000000012
  0.7759459999999976  0.4497420000000005  0.7039540000000031
  0.9380060000000014  0.8403240000000025  0.5904129999999981
  0.4120970000000028  0.1818140000000028  0.3474909999999980
  0.8598199999999991  0.8598339999999993  0.8463059999999984
  0.8002579999999995  0.0375763999999990  0.2702529999999967
  0.6122900000000016  0.2268430000000023  0.9158079999999984
  0.9747410000000016  0.8423820000000006  0.2068110000000019
  0.9325109999999981  0.2667470000000023  0.6435069999999996
  0.8577519999999978  0.2750460000000032  0.8723699999999965
  0.6140199999999965  0.7490620000000021  0.4796539999999965
  0.0143525000000011  0.9371119999999991  0.0006562660000000
  0.1048740000000024  0.3944830000000010  0.2363769999999974
  0.7256530000000012  0.3103679999999969  0.0985828000000026
  0.1654529999999994  0.7605319999999978  0.9565279999999987
  0.1134950000000003  0.1569339999999997  0.0129570000000001
  0.4404550000000000  0.9481230000000025  0.5205720000000014
  0.2294699999999992  0.1617219999999975  0.8007530000000003
  0.9634730000000005  0.3477010000000007  0.0555354999999977
  0.9514810000000011  0.7322830000000025  0.0241133000000033
  0.8425590000000014  0.5437659999999980  0.0814705000000018
  0.9692200000000000  0.0891245999999981  0.8330330000000004
  0.5883800000000008  0.9987199999999987  0.6964779999999990
  0.4654340000000019  0.8387979999999970  0.3179179999999988
  0.3431229999999985  0.5795740000000009  0.3539140000000032
  0.4722229999999996  0.7754839999999987  0.6723920000000021
  0.0638685999999993  0.0804953000000026  0.6058030000000016
  0.8653509999999969  0.1393970000000024  0.4586029999999965
  0.4272020000000012  0.3103910000000027  0.5375689999999977
  0.4924159999999986  0.0128714000000016  0.8918490000000006
  0.1224050000000005  0.9183049999999966  0.7779689999999988
  0.3933510000000027  0.7926450000000003  0.9180840000000003
  0.1029640000000001  0.6786019999999979  0.5803519999999978
  0.1379050000000035  0.1600239999999999  0.3836439999999968
  0.2511369999999999  0.2204070000000016  0.1944170000000014
  0.3345759999999984  0.9500299999999982  0.7439540000000022
  0.4834639999999979  0.5636939999999981  0.5226079999999982
  0.6821270000000013  0.2350360000000009  0.3042149999999992
  0.1650350000000032  0.7898550000000029  0.3270040000000023
  0.3733709999999988  0.1972749999999976  0.9662069999999972
  0.3310659999999999  0.7462429999999998  0.5086349999999982
  0.2536100000000019  0.7349529999999973  0.7260989999999978
  0.7855350000000030  0.9125950000000032  0.0849906999999988
  0.4088199999999986  0.5826149999999970  0.7663379999999975
  0.4011130000000023  0.0467651000000018  0.1400530000000018
  0.3076750000000033  0.5848340000000007  0.9857590000000016
  0.6012300000000010  0.4944199999999981  0.1350020000000001
  0.4819949999999977  0.2717689999999990  0.1556629999999970
  0.0077700000000007  0.4841329999999999  0.6518090000000001
  0.8610510000000033  0.6487750000000005  0.6419039999999967
  0.1152969999999982  0.0320644000000030  0.1994740000000021
  0.2749250000000032  0.4999260000000021  0.5778630000000007
  0.7708879999999994  0.3299779999999970  0.4971109999999967
  0.0017799999999966  0.6061270000000007  0.2503010000000003
  0.7663510000000002  0.6435320000000004  0.8868569999999991
  0.7099540000000033  0.2229669999999970  0.6927499999999966
  0.2966029999999975  0.9921629999999979  0.3557770000000033
  0.0727594999999965  0.5367600000000010  0.0412637000000018
  0.9939554999999984  0.3220650000000020  0.4224189999999979
  0.5616169999999983  0.4260930000000016  0.3453650000000010
  0.6436970000000031  0.0891701999999981  0.0956359999999989
  0.2149780000000021  0.3748009999999979  0.9886490000000023
  0.3016280000000009  0.3662139999999994  0.7619290000000021
  0.1586769999999973  0.3101270000000014  0.5862470000000002
  0.4582539999999966  0.4000910000000033  0.9480969999999971
  0.2893850000000029  0.8504689999999968  0.1583380000000005
  0.9415589999999980  0.5094390000000004  0.8617750000000015
  0.2868879999999976  0.1165260000000004  0.5658170000000027
  0.2554569999999998  0.9705459999999988  0.9650249999999971
  0.6096920000000026  0.6102169999999987  0.7126420000000024
  0.5412379999999999  0.3793420000000012  0.7222450000000009
  0.7360759999999971  0.0416742999999968  0.8842070000000035
  0.4410600000000002  0.1693789999999993  0.7286029999999997
  0.4532650000000018  0.6638549999999981  0.1599930000000001
  0.8370970000000000  0.4209680000000020  0.2687760000000026
  0.7191029999999969  0.6252380000000031  0.3006170000000026
  0.2642740000000003  0.3493130000000022  0.3917240000000035
  0.5632189999999966  0.0253599999999992  0.2996300000000005
  0.6962339999999969  0.8563839999999985  0.2996079999999992
  0.8892200000000017  0.1237920000000017  0.0475463000000005
  0.2117560000000012  0.6343030000000027  0.1747950000000031
 
  0.00000000E+00  0.00000000E+00  0.00000000E+00
  0.00000000E+00  0.00000000E+00  0.00000000E+00
  0.00000000E+00  0.00000000E+00  0.00000000E+00
  0.00000000E+00  0.00000000E+00  0.00000000E+00
  0.00000000E+00  0.00000000E+00  0.00000000E+00
  0.00000000E+00  0.00000000E+00  0.00000000E+00
  0.00000000E+00  0.00000000E+00  0.00000000E+00
  0.00000000E+00  0.00000000E+00  0.00000000E+00
  0.00000000E+00  0.00000000E+00  0.00000000E+00
  0.00000000E+00  0.00000000E+00  0.00000000E+00
  0.00000000E+00  0.00000000E+00  0.00000000E+00
  0.00000000E+00  0.00000000E+00  0.00000000E+00
  0.00000000E+00  0.00000000E+00  0.00000000E+00
  0.00000000E+00  0.00000000E+00  0.00000000E+00
  0.00000000E+00  0.00000000E+00  0.00000000E+00
  0.00000000E+00  0.00000000E+00  0.00000000E+00
  0.00000000E+00  0.00000000E+00  0.00000000E+00
  0.00000000E+00  0.00000000E+00  0.00000000E+00
  0.00000000E+00  0.00000000E+00  0.00000000E+00
  0.00000000E+00  0.00000000E+00  0.00000000E+00
  0.00000000E+00  0.00000000E+00  0.00000000E+00
  0.00000000E+00  0.00000000E+00  0.00000000E+00
  0.00000000E+00  0.00000000E+00  0.00000000E+00
  0.00000000E+00  0.00000000E+00  0.00000000E+00
  0.00000000E+00  0.00000000E+00  0.00000000E+00
  0.00000000E+00  0.00000000E+00  0.00000000E+00
  0.00000000E+00  0.00000000E+00  0.00000000E+00
  0.00000000E+00  0.00000000E+00  0.00000000E+00
  0.00000000E+00  0.00000000E+00  0.00000000E+00
  0.00000000E+00  0.00000000E+00  0.00000000E+00
  0.00000000E+00  0.00000000E+00  0.00000000E+00
  0.00000000E+00  0.00000000E+00  0.00000000E+00
  0.00000000E+00  0.00000000E+00  0.00000000E+00
  0.00000000E+00  0.00000000E+00  0.00000000E+00
  0.00000000E+00  0.00000000E+00  0.00000000E+00
  0.00000000E+00  0.00000000E+00  0.00000000E+00
  0.00000000E+00  0.00000000E+00  0.00000000E+00
  0.00000000E+00  0.00000000E+00  0.00000000E+00
  0.00000000E+00  0.00000000E+00  0.00000000E+00
  0.00000000E+00  0.00000000E+00  0.00000000E+00
  0.00000000E+00  0.00000000E+00  0.00000000E+00
  0.00000000E+00  0.00000000E+00  0.00000000E+00
  0.00000000E+00  0.00000000E+00  0.00000000E+00
  0.00000000E+00  0.00000000E+00  0.00000000E+00
  0.00000000E+00  0.00000000E+00  0.00000000E+00
  0.00000000E+00  0.00000000E+00  0.00000000E+00
  0.00000000E+00  0.00000000E+00  0.00000000E+00
  0.00000000E+00  0.00000000E+00  0.00000000E+00
  0.00000000E+00  0.00000000E+00  0.00000000E+00
  0.00000000E+00  0.00000000E+00  0.00000000E+00
  0.00000000E+00  0.00000000E+00  0.00000000E+00
  0.00000000E+00  0.00000000E+00  0.00000000E+00
  0.00000000E+00  0.00000000E+00  0.00000000E+00
  0.00000000E+00  0.00000000E+00  0.00000000E+00
  0.00000000E+00  0.00000000E+00  0.00000000E+00
  0.00000000E+00  0.00000000E+00  0.00000000E+00
  0.00000000E+00  0.00000000E+00  0.00000000E+00
  0.00000000E+00  0.00000000E+00  0.00000000E+00
  0.00000000E+00  0.00000000E+00  0.00000000E+00
  0.00000000E+00  0.00000000E+00  0.00000000E+00
  0.00000000E+00  0.00000000E+00  0.00000000E+00
  0.00000000E+00  0.00000000E+00  0.00000000E+00
  0.00000000E+00  0.00000000E+00  0.00000000E+00
  0.00000000E+00  0.00000000E+00  0.00000000E+00
  0.00000000E+00  0.00000000E+00  0.00000000E+00
  0.00000000E+00  0.00000000E+00  0.00000000E+00
  0.00000000E+00  0.00000000E+00  0.00000000E+00
  0.00000000E+00  0.00000000E+00  0.00000000E+00
  0.00000000E+00  0.00000000E+00  0.00000000E+00
  0.00000000E+00  0.00000000E+00  0.00000000E+00
  0.00000000E+00  0.00000000E+00  0.00000000E+00
  0.00000000E+00  0.00000000E+00  0.00000000E+00
  0.00000000E+00  0.00000000E+00  0.00000000E+00
  0.00000000E+00  0.00000000E+00  0.00000000E+00
  0.00000000E+00  0.00000000E+00  0.00000000E+00
  0.00000000E+00  0.00000000E+00  0.00000000E+00
  0.00000000E+00  0.00000000E+00  0.00000000E+00
  0.00000000E+00  0.00000000E+00  0.00000000E+00
  0.00000000E+00  0.00000000E+00  0.00000000E+00
  0.00000000E+00  0.00000000E+00  0.00000000E+00
  0.00000000E+00  0.00000000E+00  0.00000000E+00
  0.00000000E+00  0.00000000E+00  0.00000000E+00
  0.00000000E+00  0.00000000E+00  0.00000000E+00
  0.00000000E+00  0.00000000E+00  0.00000000E+00
  0.00000000E+00  0.00000000E+00  0.00000000E+00
  0.00000000E+00  0.00000000E+00  0.00000000E+00
  0.00000000E+00  0.00000000E+00  0.00000000E+00
  0.00000000E+00  0.00000000E+00  0.00000000E+00
  0.00000000E+00  0.00000000E+00  0.00000000E+00
  0.00000000E+00  0.00000000E+00  0.00000000E+00
  0.00000000E+00  0.00000000E+00  0.00000000E+00
  0.00000000E+00  0.00000000E+00  0.00000000E+00
  0.00000000E+00  0.00000000E+00  0.00000000E+00
  0.00000000E+00  0.00000000E+00  0.00000000E+00
  0.00000000E+00  0.00000000E+00  0.00000000E+00
  0.00000000E+00  0.00000000E+00  0.00000000E+00
  0.00000000E+00  0.00000000E+00  0.00000000E+00
  0.00000000E+00  0.00000000E+00  0.00000000E+00
  0.00000000E+00  0.00000000E+00  0.00000000E+00
  0.00000000E+00  0.00000000E+00  0.00000000E+00
