Si 
 1.0000000000000000
    10.2114949999999993    0.0000000000000000    0.0000000000000000
     0.0000000000000000   10.2114949999999993    0.0000000000000000
     0.0000000000000000    0.0000000000000000   10.2114949999999993
 100
Cartesian
  1.2088878355749999  5.3923024726900000  4.2656682293399992
  5.9443256808950000  1.4033657578499998  5.2110178019550002
  1.7327579520649998  5.5319038208349998  8.3235529584199988
  7.0733596255700002  5.4254489854600001  5.2350862956699995
  6.2229871679499995  8.4665853688849992  9.0433714524649993
  0.1581096828325000  7.3044866033999991  8.1171990674599996
  5.5673887659599997  6.1457984772450001  9.6829582302950001
  7.0650781031249998  4.4974793773349999  9.3414858374949983
  7.0211278286449996  7.4382878223850000  1.0473011386950000
  9.1932251415900001  5.5942041518299996  4.5715841965499990
 -0.6108455040030000  2.1989739677849998  2.5153056598950001
  3.3561712156699999  4.4248552248949995  1.7545186479099999
  8.9429107646550001  7.7587143239899996  4.0036719021250002
  5.4129603270750000  9.0408798476849999  0.8700561353820000
  8.6241895827149992  0.2555753391590000  6.7957601339949996
  0.6960818739175000  3.0362655003099999  8.3819524983249991
  1.9005123919250000  9.2330295490999994  5.5826243164999996
  0.1498353084340000  9.7487713155700000  4.1321631437099997
  7.2412263918749993  9.7058830365700004  5.1579486624399999
  7.2597806782899994  8.3104209758500005  6.8895527155699998
  7.9235686992699996  4.5925381842899995  7.1884227512299992
  9.5784435789699991  8.5809643243799982  6.0289993974349994
  4.2081264550149999  1.8565927519299998  3.5484026090449996
  8.7800476309000004  8.7801905918299994  8.6420494874699987
  8.1718305657099997  0.3837112207180000  2.7596871582350002
  6.2523962735499996  2.3164061602849997  9.3517688129599996
  9.9535628477949984  8.6019795810899993  2.1118494924449998
  9.5223314139449986  2.7238856567649998  6.5711685129650004
  8.7589302592399996  2.8086308537700000  8.9082018931499984
  6.2700621598999993  7.6490428676899995  4.8979844227299996
  0.1465604819875000  9.5693145024399993  0.0067014569776700
  1.0709203266299998  4.0282611820849992  2.4137625536149998
  7.4100019812349993  3.1693212801599997  1.0066777692859998
  1.6895224822349997  7.7661687153399992  9.7675808893599996
  1.1589536250249999  1.6025307563299998  0.1323103407150000
  4.4977040302250000  9.6817532738850005  5.3158183751400001
  2.3432317576499999  1.6514233943899999  8.1768852557349998
  9.8384997221349995  3.5505470229949996  0.5671004805725000
  9.7160434740949988  7.4777041930849997  0.2462328423835000
  8.6037870157049987  5.5526637901699996  0.8319356033974999
  9.8971851838999996  0.9100954072769999  8.5065123143349997
  6.0082394280999996 10.1984242863999999  7.1120816146100001
  4.7527769638299997  8.5653815830099997  3.2464180674099996
  3.5037987988849997  5.9183170031300003  3.6139910414299998
  4.8221028033849995  7.9188509885799991  6.8661275460399995
  0.6521938895570000  0.8219773534735000  6.1861543054849992
  8.8365274097449991  1.4234517685149999  4.6830222414849993
  4.3623710869899996  3.1695561445449996  5.4893831556549992
  5.0283035219199999  0.1314362367430000  9.1071116042549995
  1.2499380454750000  9.3772669159749995  7.9442265536549996
  4.0167017697449996  8.0940904542749994  9.3750101755799999
  1.0514163711800000  6.9295409299899999  5.9262615462399992
  1.4082162179750000  1.6340842758799998  3.9175787877799997
  2.5644842198149997  2.2506849784649998  1.9852882234150000
  3.4165211511199995  9.7012265948500005  7.5968825512299993
  4.9368902186799994  5.7561584625300002  5.3366089789599993
  6.9655364498649996  2.4000689388199996  3.1064899514250000
  1.6852540773249998  8.0656003832250001  3.3391997109800000
  3.8126760996450000  2.0144726761250000  9.8664179494649993
  3.3806788036700000  7.6202566632849997  5.1939237593249992
  2.5897372469500000  7.5049688847349989  7.4145563080050003
  8.0214867248249995  9.3189592795250000  0.8678821080965000
  4.1746633858999997  5.9493701594249995  7.8254566553099991
  4.0959633939349995  0.4775415848244999  1.4301505092350000
  3.1418217241249997  5.9720294668299996 10.0660730997049992
  6.1394571388500001  5.0487673579000001  1.3785722479900000
  4.9218895325249994  2.7751677846549998  1.5895519461849998
 10.2908383161499994  4.9437217088349996  6.6559443444549995
  8.7926179812449998  6.6249626686249998  6.5547994864799994
  1.1773547390149999  0.3274254602780000  2.0369277536300001
  2.8073952628749996  5.1049918493699993  5.9008451351849995
  7.8719189575599993  3.3695686971099996  5.0762464909449996
 10.2296714610999988  6.1894628298649996  2.5559474099949999
  7.8255894047449992  6.5714238003399998  9.0561358212149994
  7.2496917212299996  2.2768264056650001  7.0740131612499990
  3.0287600514849999 10.1314675136849992  3.6330150566149997
  0.7429832704525000  5.4811220561999994  0.4213640662315000
 -0.0617233815275000  3.2887651371749995  4.3135295064049997
  5.7349491874150003  4.3510465390349999  3.5266929706749996
  6.5731086970149990  0.9105610514490000  0.9765865358199999
  2.1952467721100000  3.8272785374949998 10.0955843202550000
  3.0800728138599998  3.7395924299299996  7.7804341738549994
  1.6203293921149999  3.1668603098649997  5.9864583092649992
  4.6794584297299995  4.0855272460449994  9.6814877750149986
  2.9550534805749997  8.6845599411549994  1.6168676953099999
  9.6147250207050003  5.2021338013049991  8.8000111036249997
  2.9295553775599994  1.1899046663699999  5.7778374664149998
  2.6085978782149999  9.9107256262699988  9.8543479623749999
  6.2258668095399994  6.2312278444149998  7.2771402197899997
  5.5268491308099996  3.8736489362900000  7.3752012062749994
  7.5164363936199994  0.4255569060784999  9.0290753594649988
  4.5038819846999996  1.7296128116049998  7.4401258914849997
  4.6285132811749996  6.7789520132249992  1.6337677195349998
  8.5480118300149996  4.2987126271599996  2.7446047801200000
  7.3431166889849999  6.3846147108099993  3.0697489924150001
  2.6986326296300001  3.5670079529349996  4.0000876673799999
  5.7513080024049996 10.4704585132000005  3.0596702468499997
  7.1095900098299998  8.7449609340799999  3.0594455939599996
  9.0802655838999993  1.2641013890399999  0.4855188047185000
  2.1623453352199999  6.4771819129849995  1.7849182685250000
