Ni80 P20
1.0
14.000000 0.000000 0.000000
0.000000 14.000000 0.000000
0.000000 0.000000 14.000000
Ni P
80 20
direct
0.590179 0.120414 0.126714 Ni
0.632933 0.780067 0.275747 Ni
0.435627 -0.117186 1.142302 Ni
0.562468 0.782485 0.138201 Ni
0.750805 1.113410 0.174465 Ni
0.298484 0.965198 0.456780 Ni
0.545792 -0.041255 1.026877 Ni
0.434926 0.843713 0.454114 Ni
1.028807 -0.108553 0.554136 Ni
0.602076 0.936586 0.169504 Ni
0.714514 0.088874 0.013753 Ni
0.552657 0.640854 0.024447 Ni
0.679635 -0.184094 0.596198 Ni
0.698466 -0.023836 0.583864 Ni
-0.121529 0.899607 0.643990 Ni
0.598604 0.824249 0.422416 Ni
0.132575 0.813828 0.128888 Ni
-0.212567 -0.071788 0.443996 Ni
0.978945 0.754424 0.727629 Ni
0.679081 0.535839 0.068708 Ni
0.425760 0.717088 0.845215 Ni
0.504046 0.299228 0.205529 Ni
0.275878 0.839926 0.886972 Ni
0.383412 0.863274 0.766767 Ni
1.017846 0.913732 0.711053 Ni
-0.207696 0.026922 0.300983 Ni
0.445192 0.043878 0.390280 Ni
0.589578 0.674041 0.842511 Ni
0.089854 0.796552 0.387727 Ni
0.905442 0.714478 0.879837 Ni
0.928974 0.783374 1.045285 Ni
0.421210 -0.175705 0.981750 Ni
0.778766 0.940720 0.737255 Ni
0.935980 0.910246 0.328015 Ni
0.468131 0.043757 0.216564 Ni
0.846126 0.933937 1.183345 Ni
0.235299 -0.044438 0.004196 Ni
0.801382 0.983817 0.928975 Ni
0.948394 0.933459 0.981817 Ni
0.419944 -0.275552 0.100095 Ni
0.608455 0.796246 0.967050 Ni
0.349707 0.777991 0.328530 Ni
0.376178 -0.026453 -0.092397 Ni
0.621133 0.025647 0.328712 Ni
0.490204 0.866625 0.289725 Ni
0.739565 0.635611 0.249948 Ni
0.169337 0.942584 0.629864 Ni
-0.505485 0.485524 0.219004 Ni
0.603054 0.555967 0.343809 Ni
0.068212 0.913207 0.251443 Ni
0.660223 0.838586 0.776298 Ni
0.829177 0.657273 1.011773 Ni
0.504565 0.118793 0.008056 Ni
0.840236 0.758071 0.233368 Ni
0.341087 0.920118 0.605320 Ni
0.404984 0.636363 0.250242 Ni
0.718692 -0.328249 0.556575 Ni
0.551857 0.760632 0.701162 Ni
0.215014 0.895953 0.303231 Ni
0.548770 0.720212 0.514036 Ni
0.872895 0.875541 0.833967 Ni
0.279030 0.789987 0.495630 Ni
1.513202 0.875138 0.840246 Ni
0.568634 -0.023753 0.705581 Ni
0.505695 0.710110 0.356835 Ni
0.810453 0.771768 0.719993 Ni
0.299948 -0.049508 0.170454 Ni
1.098712 0.860384 0.987397 Ni
0.614696 0.382783 0.112430 Ni
-0.099538 0.747762 0.561229 Ni
0.560810 0.629814 1.182828 Ni
0.643374 0.959907 0.875370 Ni
0.563582 -0.035966 0.469140 Ni
0.657066 0.223373 0.226261 Ni
0.514759 0.868732 0.599218 Ni
0.726774 0.760002 0.098608 Ni
0.769966 -0.220712 0.376545 Ni
0.730471 0.929711 0.055042 Ni
0.757084 -0.164812 0.927613 Ni
0.120655 0.889421 0.832942 Ni
0.530209 0.043835 0.863100 P
0.154329 0.852121 0.504880 P
0.830298 1.030106 1.062964 P
0.701361 0.917683 0.260327 P
0.380242 0.022444 0.060237 P
0.151172 -0.043836 0.129653 P
0.666384 0.515634 0.212855 P
0.282616 0.722433 0.184481 P
0.580760 0.255399 0.078475 P
0.391106 0.779413 0.594974 P
0.975924 -0.189305 1.186965 P
0.370311 -0.064797 0.327699 P
0.017071 0.816686 0.859964 P
0.444876 1.003289 0.550003 P
0.694705 -0.315318 0.727354 P
0.701826 0.653349 -0.050273 P
0.536809 0.168579 0.303044 P
-0.307977 0.662545 0.410832 P
0.408618 0.643633 -0.036250 P
0.898928 -0.157350 0.437395 P
