Si                                      
   1.00000000000000     
    10.2114949999999993    0.0000000000000000    0.0000000000000000
     0.0000000000000000   10.2114949999999993    0.0000000000000000
     0.0000000000000000    0.0000000000000000   10.2114949999999993
   Si
   100
Direct
  0.0583000000000027  0.2138319999999965  0.0528735999999981
  0.1744190000000003  0.6933939999999978  0.5040619999999976
  0.6014589999999984  0.7913970000000035  0.9219790000000003
  0.2526629999999983  0.4246809999999996  0.3041780000000003
  0.1516909999999996  0.2245410000000021  0.3722660000000033
  0.6063419999999979  0.2962530000000001  0.2104629999999972
  0.5563649999999996  0.4099750000000029  0.4403959999999998
  0.8732350000000011  0.3333620000000010  0.9097000000000008
  0.8226009999999988  0.3316429999999997  0.1265300000000025
  0.8808259999999990  0.5564630000000008  0.5355050000000006
  0.8261040000000008  0.6324290000000019  0.2951109999999986
  0.4115630000000010  0.2665379999999971  0.3538250000000005
  0.7215470000000010  0.0035999999999987  0.4686670000000035
  0.5756200000000007  0.9404198000000008  0.1294669999999982
  0.7961039999999997  0.8598759999999999  0.0282057000000009
  0.1388570000000016  0.8785799999999995  0.0663452000000007
  0.0660048000000018  0.8229979999999983  0.6632469999999984
  0.6494849999999985  0.0213401000000033  0.9166689999999988
  0.9040379999999999  0.5469889999999964  0.1034649999999999
  0.5547660000000008  0.0809895000000012  0.3248260000000016
  0.9625290000000035  0.7753170000000011  0.1631989999999988
  0.5885650000000027  0.6189139999999966  0.7763500000000008
  0.8863910000000033  0.9163830000000033  0.5814840000000032
  0.9585640000000026  0.5643120000000010  0.8622429999999994
  0.6506529999999984  0.8270970000000020  0.6931489999999982
  0.6646369999999990  0.7355870000000024  0.1474469999999997
  0.4990290000000002  0.7202839999999995  0.5573710000000034
  0.8505389999999977  0.9301990000000018  0.8057489999999987
  0.4612290000000030  0.1498360000000005  0.9066249999999982
  0.4035149999999987  0.7423069999999967  0.7962070000000026
  0.9526340000000033  0.0053300000000007  0.1421849999999978
  0.4190230000000028  0.9153019999999970  0.9458100000000016
  0.1491449999999972  0.8546350000000018  0.3029859999999971
  0.5827859999999987  0.8382500000000022  0.3450959999999981
  0.6211600000000033  0.2756770000000017  0.7576579999999993
  0.5031340000000029  0.4508790000000005  0.6552349999999976
  0.1416779999999989  0.4709849999999989  0.5051249999999996
  0.9563410000000019  0.3775440000000003  0.6704780000000028
  0.5066640000000007  0.6163529999999966  0.0327300000000008
  0.1506079999999983  0.0779382999999996  0.2125520000000023
  0.0977323999999982  0.4128370000000032  0.9519289999999998
  0.3180109999999985  0.5963679999999982  0.6434659999999965
  0.7448369999999969  0.7554850000000002  0.4853560000000030
  0.7726339999999965  0.6559379999999990  0.9439700000000002
  0.2093720000000019  0.6464509999999990  0.2372020000000035
  0.4385759999999976  0.1412809999999993  0.1444880000000026
  0.3564459999999983  0.8197359999999989  0.4016090000000005
  0.1966499999999982  0.6119759999999985  0.8434809999999970
  0.4515999999999991  0.4837670000000003  0.2211360000000013
  0.9654629999999997  0.3396159999999995  0.4314839999999975
  0.2043260000000018  0.4014209999999991  0.7326589999999982
  0.3591079999999991  0.5823749999999990  0.4146179999999973
  0.0853654000000006  0.2328189999999992  0.8152350000000013
  0.2643750000000011  0.0695150000000027  0.0050700000000035
  0.8295239999999993  0.1857329999999990  0.7555690000000013
  0.1134100000000018  0.2357399999999998  0.5834440000000001
  0.6580069999999978  0.2358919999999998  0.9950884000000002
  0.0300265999999993  0.5571150000000031  0.3354190000000017
  0.1452969999999993  0.9941934599999982  0.5137890000000027
  0.8503830000000008  0.7076569999999975  0.7090719999999990
  0.6375820000000019  0.4606759999999994  0.9327650000000034
  0.9946430000000035  0.7823610000000016  0.8896999999999977
  0.4647890000000032  0.9877639999999985  0.7512749999999997
  0.9635940000000005  0.9963709999999963  0.3736809999999977
  0.3363999999999976  0.9198769999999996  0.1689059999999998
  0.3901480000000035  0.4814050000000023  0.8606860000000012
  0.2097920000000002  0.8620360000000034  0.8336260000000024
  0.9403939999999977  0.1998930000000030  0.2614620000000016
  0.4883219999999966  0.9721199999999968  0.5187850000000012
  0.4351300000000009  0.7119450000000001  0.2262440000000012
  0.9069170000000000  0.1478129999999993  0.5382079999999974
  0.6784230000000022  0.5128020000000006  0.1537909999999982
  0.3070439999999977  0.7210200000000029  0.0276883000000012
  0.7502739999999974  0.2036560000000023  0.3839710000000025
  0.7397580000000019  0.1044300000000007  0.1776399999999967
  0.3343520000000026  0.3670869999999979  0.5317450000000008
  0.6786069999999995  0.0474962999999988  0.6789830000000023
  0.3992020000000025  0.2700200000000024  0.7279770000000028
  0.7814369999999968  0.4931240000000017  0.7547250000000005
  0.4696160000000020  0.3517030000000005  0.0321202000000014
  0.2853640000000013  0.2872580000000013  0.9155549999999977
  0.0259829999999965  0.0429966000000022  0.7016580000000019
  0.0471254999999999  0.6108880000000028  0.6673189999999991
  0.5659640000000010  0.1955919999999978  0.5353270000000023
  0.0492196000000007  0.0159900000000022  0.9236119999999985
  0.7851629999999972  0.8840679999999992  0.2700570000000013
  0.7570120000000031  0.3326789999999988  0.5808490000000006
  0.1006629999999973  0.6390760000000029  0.0429602999999972
  0.3288799999999981  0.1378399999999971  0.5514360000000025
  0.2517169999999993  0.0808794000000006  0.7624970000000033
  0.6670500000000033  0.5646020000000007  0.5680270000000007
  0.9685899999999990  0.7642099999999985  0.4143290000000022
  0.2525979999999990  0.2668800000000005  0.1597319999999982
  0.3027530000000027  0.8567940000000007  0.6264899999999969
  0.7680349999999976  0.4287769999999966  0.3514460000000028
  0.3290330000000026  0.0516768999999968  0.3528999999999982
  0.8495369999999980  0.1024790000000024  0.9690670000000026
  0.6030009999999990  0.6183539999999965  0.3584990000000019
  0.0640199999999993  0.3904980000000009  0.1920580000000029
  0.2699059999999989  0.4765250000000023  0.0806563000000011
 
  0.00000000E+00  0.00000000E+00  0.00000000E+00
  0.00000000E+00  0.00000000E+00  0.00000000E+00
  0.00000000E+00  0.00000000E+00  0.00000000E+00
  0.00000000E+00  0.00000000E+00  0.00000000E+00
  0.00000000E+00  0.00000000E+00  0.00000000E+00
  0.00000000E+00  0.00000000E+00  0.00000000E+00
  0.00000000E+00  0.00000000E+00  0.00000000E+00
  0.00000000E+00  0.00000000E+00  0.00000000E+00
  0.00000000E+00  0.00000000E+00  0.00000000E+00
  0.00000000E+00  0.00000000E+00  0.00000000E+00
  0.00000000E+00  0.00000000E+00  0.00000000E+00
  0.00000000E+00  0.00000000E+00  0.00000000E+00
  0.00000000E+00  0.00000000E+00  0.00000000E+00
  0.00000000E+00  0.00000000E+00  0.00000000E+00
  0.00000000E+00  0.00000000E+00  0.00000000E+00
  0.00000000E+00  0.00000000E+00  0.00000000E+00
  0.00000000E+00  0.00000000E+00  0.00000000E+00
  0.00000000E+00  0.00000000E+00  0.00000000E+00
  0.00000000E+00  0.00000000E+00  0.00000000E+00
  0.00000000E+00  0.00000000E+00  0.00000000E+00
  0.00000000E+00  0.00000000E+00  0.00000000E+00
  0.00000000E+00  0.00000000E+00  0.00000000E+00
  0.00000000E+00  0.00000000E+00  0.00000000E+00
  0.00000000E+00  0.00000000E+00  0.00000000E+00
  0.00000000E+00  0.00000000E+00  0.00000000E+00
  0.00000000E+00  0.00000000E+00  0.00000000E+00
  0.00000000E+00  0.00000000E+00  0.00000000E+00
  0.00000000E+00  0.00000000E+00  0.00000000E+00
  0.00000000E+00  0.00000000E+00  0.00000000E+00
  0.00000000E+00  0.00000000E+00  0.00000000E+00
  0.00000000E+00  0.00000000E+00  0.00000000E+00
  0.00000000E+00  0.00000000E+00  0.00000000E+00
  0.00000000E+00  0.00000000E+00  0.00000000E+00
  0.00000000E+00  0.00000000E+00  0.00000000E+00
  0.00000000E+00  0.00000000E+00  0.00000000E+00
  0.00000000E+00  0.00000000E+00  0.00000000E+00
  0.00000000E+00  0.00000000E+00  0.00000000E+00
  0.00000000E+00  0.00000000E+00  0.00000000E+00
  0.00000000E+00  0.00000000E+00  0.00000000E+00
  0.00000000E+00  0.00000000E+00  0.00000000E+00
  0.00000000E+00  0.00000000E+00  0.00000000E+00
  0.00000000E+00  0.00000000E+00  0.00000000E+00
  0.00000000E+00  0.00000000E+00  0.00000000E+00
  0.00000000E+00  0.00000000E+00  0.00000000E+00
  0.00000000E+00  0.00000000E+00  0.00000000E+00
  0.00000000E+00  0.00000000E+00  0.00000000E+00
  0.00000000E+00  0.00000000E+00  0.00000000E+00
  0.00000000E+00  0.00000000E+00  0.00000000E+00
  0.00000000E+00  0.00000000E+00  0.00000000E+00
  0.00000000E+00  0.00000000E+00  0.00000000E+00
  0.00000000E+00  0.00000000E+00  0.00000000E+00
  0.00000000E+00  0.00000000E+00  0.00000000E+00
  0.00000000E+00  0.00000000E+00  0.00000000E+00
  0.00000000E+00  0.00000000E+00  0.00000000E+00
  0.00000000E+00  0.00000000E+00  0.00000000E+00
  0.00000000E+00  0.00000000E+00  0.00000000E+00
  0.00000000E+00  0.00000000E+00  0.00000000E+00
  0.00000000E+00  0.00000000E+00  0.00000000E+00
  0.00000000E+00  0.00000000E+00  0.00000000E+00
  0.00000000E+00  0.00000000E+00  0.00000000E+00
  0.00000000E+00  0.00000000E+00  0.00000000E+00
  0.00000000E+00  0.00000000E+00  0.00000000E+00
  0.00000000E+00  0.00000000E+00  0.00000000E+00
  0.00000000E+00  0.00000000E+00  0.00000000E+00
  0.00000000E+00  0.00000000E+00  0.00000000E+00
  0.00000000E+00  0.00000000E+00  0.00000000E+00
  0.00000000E+00  0.00000000E+00  0.00000000E+00
  0.00000000E+00  0.00000000E+00  0.00000000E+00
  0.00000000E+00  0.00000000E+00  0.00000000E+00
  0.00000000E+00  0.00000000E+00  0.00000000E+00
  0.00000000E+00  0.00000000E+00  0.00000000E+00
  0.00000000E+00  0.00000000E+00  0.00000000E+00
  0.00000000E+00  0.00000000E+00  0.00000000E+00
  0.00000000E+00  0.00000000E+00  0.00000000E+00
  0.00000000E+00  0.00000000E+00  0.00000000E+00
  0.00000000E+00  0.00000000E+00  0.00000000E+00
  0.00000000E+00  0.00000000E+00  0.00000000E+00
  0.00000000E+00  0.00000000E+00  0.00000000E+00
  0.00000000E+00  0.00000000E+00  0.00000000E+00
  0.00000000E+00  0.00000000E+00  0.00000000E+00
  0.00000000E+00  0.00000000E+00  0.00000000E+00
  0.00000000E+00  0.00000000E+00  0.00000000E+00
  0.00000000E+00  0.00000000E+00  0.00000000E+00
  0.00000000E+00  0.00000000E+00  0.00000000E+00
  0.00000000E+00  0.00000000E+00  0.00000000E+00
  0.00000000E+00  0.00000000E+00  0.00000000E+00
  0.00000000E+00  0.00000000E+00  0.00000000E+00
  0.00000000E+00  0.00000000E+00  0.00000000E+00
  0.00000000E+00  0.00000000E+00  0.00000000E+00
  0.00000000E+00  0.00000000E+00  0.00000000E+00
  0.00000000E+00  0.00000000E+00  0.00000000E+00
  0.00000000E+00  0.00000000E+00  0.00000000E+00
  0.00000000E+00  0.00000000E+00  0.00000000E+00
  0.00000000E+00  0.00000000E+00  0.00000000E+00
  0.00000000E+00  0.00000000E+00  0.00000000E+00
  0.00000000E+00  0.00000000E+00  0.00000000E+00
  0.00000000E+00  0.00000000E+00  0.00000000E+00
  0.00000000E+00  0.00000000E+00  0.00000000E+00
  0.00000000E+00  0.00000000E+00  0.00000000E+00
  0.00000000E+00  0.00000000E+00  0.00000000E+00
