Si 
 1.0000000000000000
    10.2114949999999993    0.0000000000000000    0.0000000000000000
     0.0000000000000000   10.2114949999999993    0.0000000000000000
     0.0000000000000000    0.0000000000000000   10.2114949999999993
 100
Cartesian
 10.8068251584999988  2.1835443988399996  0.5399185020320000
  1.7810787464049997  7.0805893640299988  5.1472265926900000
  6.1417955712049990  8.0813465085149989  9.4147839486049989
  2.5800669611850000  4.3366279080949992  3.1061121261099998
  1.5489918880449998  2.2928992987949997  3.8013923976699995
  6.1916583012900004  3.0251860282349998  2.1491418721850000
  5.6813184156749994  4.1864576626249992  4.4971015520200002
  8.9170348363249996  3.4041243961899998  9.2893970014999994
  8.3999859984949996  3.3865708362849998  1.2920604623500000
  8.9945502948699989  5.6823191421850003  5.4683066299749994
  8.4357568654799984  6.4580455713550000  3.0135245009450000
  4.2026735166849996  2.7217514543099997  3.6130822183749998
  7.3680735827649997 10.2482563819999992  4.7857907271649998
  5.8779407518999998 -0.6084029143990000  1.3220516231649999
  8.1294120154799998  8.7806194746199999  0.2880223645215000
  1.4179375612150000  8.9716152770999997  0.6774836780739999
  0.6740076851760000  8.4040399620099997  6.7727434242650002
  6.6322128300749990  0.2179143244495000  9.3605609101549998
  9.2315795168099992  5.5855754385549989  1.0565323301750000
  5.6649902351699994  0.8270238743025000  3.3169590748699997
  9.8288600708549989  7.9171456689149995  1.6665057725050001
  6.0101285546750001  6.3200372164299994  7.9276941432499992
  9.0513772645449997  9.3576404225849981  5.9378209585799997
  9.7883714931799997  5.7624691664399998  8.8047900832849990
  6.6441398562350003  8.4458968800149989  7.0780875477549996
  6.7869374023150000  7.5114429725649998  1.5056543032649998
  5.0958321383550000  7.3551764645799995  5.6915911796449992
  8.6852747458049997  9.4987224375050001  8.2279018847549992
  4.7098376273549993  1.5300495648199999  9.2579966543749990
  4.1204914049249997  7.5800642189650000  8.1304637994649998
  9.7278173278299995 10.2659222683499998  1.4519214165750001
  4.2788512693849992  9.3466017964899990  9.6581340859499996
  1.5229934217749999  8.7271010293250004  3.0939400240699997
  5.9511163250700001  8.5597856837500004  3.5239460785199999
  6.3429722342000003  2.8150743071149997  7.7368208787099997
  5.1377503253299990  4.6041486541049998  6.6909289263249994
  1.4467441886099999  4.8094609725749997  5.1580814118750000
  9.7656713397949986  3.8552886682799996  6.8465827446100000
  5.1737969026799995  6.2938855777349998 10.5457172313499985
  1.5379328389599998  0.7958665607584999  2.1704736852399997
  0.9979939139379999  4.2156829613150002  9.7206182238550003
  3.2473677364449998  6.0898088501599998  6.5707498416699996
  7.6058993013149996  7.7146313000749993  4.9562103672199997
  7.8897482278300002  6.6981076073099999  9.6393449351499996
  2.1380011311399998  6.6012311542449993  2.4221870369899996
  4.4785166311199998  1.4426902250949998  1.4754384895599999
  3.6398465467699994  8.3707300653200001  4.1010282954549995
  2.0080904917500000  6.2491898641199990  8.6132020140950001
  4.6115111419999995  4.9399843016649996  2.2581291583200001
  9.8588205971849998  3.4679870859199995  4.4060967085799998
  2.0864739273700001  4.0991085343949996  7.4815437152049986
  3.6670295464599998  5.9469194006249992  4.2338696339099995
  0.8717083552729998  2.3774300544050000  8.3247681263249991
  2.6996639906250000  0.7098520749249999 10.2632672796499982
  8.4706801783800003  1.8966116008350000  7.7154890656550004
  1.1580856479499999  2.4072578312999999  5.9578354887799989
  6.7192351904649996  2.4088099785399999 -0.0501547788420000
  0.3066164757670000  5.6889770369249995  3.4251294414050002
  1.4836995890150000 -0.0592934541773000  5.2465538045550000
  8.6836817525849987  7.2262359172149990  7.2406851826400001
  6.5106654050899992  4.7041906706199992  9.5249251336749996
 10.1567920212849998  7.9890754396949992  9.0851671014999997
  4.7461905495550001 10.0865471471799992  7.6716409061249999
  9.8397353130299994 10.1744374846449990  3.8158416630949996
  3.4351469179999996  9.3933193861149995  1.7247827744699999
  3.9839943512599998  4.9158647504750004  8.7888907855699987
  2.1422899590399997  8.8026763038200002  8.5125677308699998
  9.6028286290299985  2.0412063700349998  2.6699179056900002
  4.9864976613899996  9.9267985193999984  5.2975704335750002
  4.4433278193500003  7.2700228077749998  2.3102894747799998
  9.2609784109149995  1.5093917104349999  5.4959083009600000
  6.9277130723849991  5.2364750589899991  1.5704360275450000
  3.1353782707799995  7.3626921248999997  0.2827389370084999
  7.6614191996299992  2.0796322257199997  3.9209179466449999
  7.5540351182099998  1.0663864228500000  1.8139699717999997
  3.4142337762399997  3.7485070650649996  5.4299114087750002
  6.9295919874649989  0.4850082299685000  6.9334315095849997
  4.0764492269899995  2.7573078798999995  7.4337334956149990
  7.9796400183150000  5.0355332603799994  7.7068705638749995
  4.7954814359199993  3.5914134259849995  0.3279952616990000
  2.9139930591800001  2.9333336307100000  9.3491853047249993
  0.2653252745850000  0.4390595659170000  7.1649771587099993
  0.4812218076225000  6.2380797575599995  6.8143246319049995
  5.7793385561799999  1.9972867300399997  5.4664889838649993
  0.5026056993019999 10.3747768050499989  9.4314593199400001
  8.0176880486850006  9.0276559616599990  2.7576857052149997
  7.7302242529399994  3.3971499451049998  5.9313366592549990
  1.0279197211850000  6.5259213786199997  0.4386888886485000
  3.3583564755999999  1.4075524707999998  5.6309859568200000
  2.5704068869149999  0.8258995887030000  7.7862343030149992
  6.8115777397499997  5.7654304999899999  5.8004048703649991
  9.8907519420499987  7.8037265939499987  4.2309185118550001
  2.5794032140099996  2.7252437856000000  1.6311025193399999
  3.0915607457349998  8.7491476470299983  6.3973995025499999
  7.8427855623250000  4.3784541916149999  3.5887890717699995
  3.3599188343350002  0.5276984059655000  3.6036365854999999
  8.6750428278150000  1.0464637961049998  9.8956228251649989
  6.1575416964949996  6.3143187792299988  3.6608107460049997
  0.6537399098999999  3.9875683745099999  1.9611993067100000
  2.7561437694699995  4.8660326548749993  0.8236214041684999
