Si                                      
   1.00000000000000     
    10.2114949999999993    0.0000000000000000    0.0000000000000000
     0.0000000000000000   10.2114949999999993    0.0000000000000000
     0.0000000000000000    0.0000000000000000   10.2114949999999993
   Si
   100
Direct
  0.9916589999999985  0.7239440000000030  0.0160987000000006
  0.5715369999999993  0.7342420000000018  0.5072290000000024
  0.0345646999999971  0.0036520999999965  0.7152299999999983
  0.9787960000000027  0.1729100000000017  0.8534319999999980
  0.3274779999999993  0.0121372999999991  0.6297640000000015
  0.4365579999999980  0.7984879999999990  0.6861779999999982
  0.3527770000000032  0.5951189999999968  0.5049410000000023
  0.4468579999999989  0.4692650000000000  0.8693209999999993
  0.6835540000000009  0.7474810000000005  0.1947919999999996
  0.4456040000000030  0.0441288999999969  0.0127273000000017
  0.9979849999999999  0.1528199999999984  0.5475279999999998
  0.3461039999999969  0.8874530000000007  0.1621310000000022
  0.0433956999999978  0.4170360000000031  0.2520359999999968
  0.2332699999999974  0.3938449999999989  0.0858571999999995
  0.9774060000000020  0.2002710000000008  0.3225449999999981
  0.9793170000000018  0.5101459999999989  0.0024816600000008
  0.0889239999999987  0.0274129000000016  0.3492260000000016
  0.1243550000000013  0.4072469999999981  0.8558919999999972
  0.6202540000000027  0.3130999999999986  0.2529619999999966
  0.6659289999999984  0.4893310000000000  0.5082790000000017
  0.7014980000000008  0.2927880000000016  0.8539120000000011
  0.1213929999999976  0.8963320000000010  0.5608760000000004
  0.3918699999999973  0.8113630000000001  0.8984540000000010
  0.6214609999999965  0.1732709999999997  0.0704814999999996
  0.6873819999999995  0.9886499999999998  0.1308670000000021
  0.4402279999999976  0.4187999999999974  0.4703090000000003
  0.2045680000000019  0.1848870000000034  0.2488120000000009
  0.2091040000000035  0.1654729999999986  0.4761609999999976
  0.2186189999999968  0.0850161999999983  0.0384766999999968
  0.8607950000000031  0.5038460000000029  0.5939699999999988
  0.8579250000000016  0.0127707999999984  0.3252740000000003
  0.8131559999999993  0.0676036999999994  0.7727270000000033
  0.8323800000000006  0.6171199999999999  0.4001129999999975
  0.6388139999999964  0.1292260000000027  0.3470680000000002
  0.7888489999999990  0.3697739999999996  0.3670060000000035
  0.1011650000000017  0.5876400000000004  0.4200250000000025
  0.8507230000000021  0.0803174999999996  0.9850750000000019
  0.8079719999999995  0.1938499999999976  0.1669210000000021
  0.0449649999999977  0.9556729999999973  0.9445600000000027
  0.8195329999999998  0.2462760000000017  0.6513769999999965
  0.8638189999999994  0.3093950000000021  0.9952579999999998
  0.1882360000000034  0.6919850000000025  0.6057050000000004
  0.6117509999999982  0.5634810000000030  0.3008230000000012
  0.9301919999999981  0.6673589999999976  0.2286000000000001
  0.5480570000000000  0.3675479999999993  0.6900400000000033
  0.4419269999999997  0.0334687000000002  0.8093969999999970
  0.6471370000000007  0.3818580000000011  0.0387459000000021
  0.6479140000000001  0.0459429000000000  0.8916370000000029
  0.2752020000000002  0.2784989999999965  0.8948759999999965
  0.6505820000000000  0.9152679999999975  0.7191509999999965
  0.4453940000000003  0.4741009999999974  0.1331840000000000
  0.1400089999999992  0.6270310000000023  0.1532079999999993
  0.2002159999999975  0.8766450000000034  0.7815670000000026
  0.8796850000000020  0.6314250000000001  0.8116429999999966
  0.5276759999999996  0.9825450000000018  0.5360840000000024
  0.8738280000000032  0.9017229999999969  0.5921680000000009
  0.6309240000000003  0.2653820000000024  0.5035749999999979
  0.7537790000000015  0.8248809999999978  0.4005250000000018
  0.7992589999999993  0.6692189999999982  0.0301157000000032
  0.4817409999999995  0.0886386999999971  0.2338290000000001
  0.7845239999999976  0.8637670000000028  0.9256639999999976
  0.5849949999999993  0.1387629999999973  0.6734590000000011
  0.2037559999999985  0.3631809999999973  0.3995999999999995
  0.8936789999999988  0.8850059999999971  0.1465049999999977
  0.5573970000000017  0.8218299999999985  0.0381130000000027
  0.1926350000000028  0.7789590000000004  0.9768899999999974
  0.3191210000000027  0.4464889999999997  0.6602040000000002
  0.1165489999999991  0.2964350000000024  0.6543459999999968
  0.6720889999999997  0.4982669999999985  0.8332260000000034
  0.7675869999999989  0.0638926000000026  0.5285820000000001
  0.3232789999999994  0.2333900000000000  0.6881010000000032
  0.9560960000000023  0.7171560000000028  0.5540459999999996
  0.1854960000000005  0.7732249999999965  0.3597990000000024
  0.7374659999999977  0.7335950000000011  0.6504890000000003
  0.5939970000000017  0.5934439999999981  0.0451778999999988
  0.4374770000000012  0.1700310000000016  0.4744480000000024
  0.1258130000000008  0.8782119999999978  0.1527359999999973
  0.3818580000000011  0.6833329999999975  0.0854928999999984
  0.1072800000000029  0.6727589999999992  0.8063429999999983
  0.9657300000000006  0.8259550000000004  0.7909110000000013
  0.2610180000000000  0.5588830000000016  0.9525739999999985
  0.9725600000000014  0.3614770000000007  0.4727570000000014
  0.1972269999999980  0.0886388999999994  0.8139309999999966
  0.3290879999999987  0.8287059999999968  0.5117880000000028
  0.0826179999999965  0.2635369999999995  0.0491881000000021
  0.6283820000000020  0.7388740000000027  0.8521229999999989
  0.3096839999999972  0.5221379999999982  0.2885860000000022
  0.5327229999999972  0.8890030000000024  0.3258579999999967
  0.4950449999999975  0.2325469999999967  0.8811380000000000
  0.3871200000000030  0.3112879999999976  0.2851959999999991
  0.4466589999999968  0.6959340000000012  0.3269710000000003
  0.5398509999999987  0.6004270000000034  0.6913869999999989
  0.3103639999999999  0.0068434300000035  0.3566629999999975
  0.8001980000000017  0.4701060000000012  0.1704080000000019
  0.9676820000000035  0.8472719999999967  0.3520049999999983
  0.0097721200000009  0.0657624999999982  0.1374989999999983
  0.3331200000000010  0.6323530000000019  0.7524790000000010
  0.0856360000000009  0.4994900000000015  0.6501739999999998
  0.8813910000000007  0.4072019999999981  0.7985129999999998
  0.4269790000000029  0.2647279999999981  0.0853808000000029
 
  0.00000000E+00  0.00000000E+00  0.00000000E+00
  0.00000000E+00  0.00000000E+00  0.00000000E+00
  0.00000000E+00  0.00000000E+00  0.00000000E+00
  0.00000000E+00  0.00000000E+00  0.00000000E+00
  0.00000000E+00  0.00000000E+00  0.00000000E+00
  0.00000000E+00  0.00000000E+00  0.00000000E+00
  0.00000000E+00  0.00000000E+00  0.00000000E+00
  0.00000000E+00  0.00000000E+00  0.00000000E+00
  0.00000000E+00  0.00000000E+00  0.00000000E+00
  0.00000000E+00  0.00000000E+00  0.00000000E+00
  0.00000000E+00  0.00000000E+00  0.00000000E+00
  0.00000000E+00  0.00000000E+00  0.00000000E+00
  0.00000000E+00  0.00000000E+00  0.00000000E+00
  0.00000000E+00  0.00000000E+00  0.00000000E+00
  0.00000000E+00  0.00000000E+00  0.00000000E+00
  0.00000000E+00  0.00000000E+00  0.00000000E+00
  0.00000000E+00  0.00000000E+00  0.00000000E+00
  0.00000000E+00  0.00000000E+00  0.00000000E+00
  0.00000000E+00  0.00000000E+00  0.00000000E+00
  0.00000000E+00  0.00000000E+00  0.00000000E+00
  0.00000000E+00  0.00000000E+00  0.00000000E+00
  0.00000000E+00  0.00000000E+00  0.00000000E+00
  0.00000000E+00  0.00000000E+00  0.00000000E+00
  0.00000000E+00  0.00000000E+00  0.00000000E+00
  0.00000000E+00  0.00000000E+00  0.00000000E+00
  0.00000000E+00  0.00000000E+00  0.00000000E+00
  0.00000000E+00  0.00000000E+00  0.00000000E+00
  0.00000000E+00  0.00000000E+00  0.00000000E+00
  0.00000000E+00  0.00000000E+00  0.00000000E+00
  0.00000000E+00  0.00000000E+00  0.00000000E+00
  0.00000000E+00  0.00000000E+00  0.00000000E+00
  0.00000000E+00  0.00000000E+00  0.00000000E+00
  0.00000000E+00  0.00000000E+00  0.00000000E+00
  0.00000000E+00  0.00000000E+00  0.00000000E+00
  0.00000000E+00  0.00000000E+00  0.00000000E+00
  0.00000000E+00  0.00000000E+00  0.00000000E+00
  0.00000000E+00  0.00000000E+00  0.00000000E+00
  0.00000000E+00  0.00000000E+00  0.00000000E+00
  0.00000000E+00  0.00000000E+00  0.00000000E+00
  0.00000000E+00  0.00000000E+00  0.00000000E+00
  0.00000000E+00  0.00000000E+00  0.00000000E+00
  0.00000000E+00  0.00000000E+00  0.00000000E+00
  0.00000000E+00  0.00000000E+00  0.00000000E+00
  0.00000000E+00  0.00000000E+00  0.00000000E+00
  0.00000000E+00  0.00000000E+00  0.00000000E+00
  0.00000000E+00  0.00000000E+00  0.00000000E+00
  0.00000000E+00  0.00000000E+00  0.00000000E+00
  0.00000000E+00  0.00000000E+00  0.00000000E+00
  0.00000000E+00  0.00000000E+00  0.00000000E+00
  0.00000000E+00  0.00000000E+00  0.00000000E+00
  0.00000000E+00  0.00000000E+00  0.00000000E+00
  0.00000000E+00  0.00000000E+00  0.00000000E+00
  0.00000000E+00  0.00000000E+00  0.00000000E+00
  0.00000000E+00  0.00000000E+00  0.00000000E+00
  0.00000000E+00  0.00000000E+00  0.00000000E+00
  0.00000000E+00  0.00000000E+00  0.00000000E+00
  0.00000000E+00  0.00000000E+00  0.00000000E+00
  0.00000000E+00  0.00000000E+00  0.00000000E+00
  0.00000000E+00  0.00000000E+00  0.00000000E+00
  0.00000000E+00  0.00000000E+00  0.00000000E+00
  0.00000000E+00  0.00000000E+00  0.00000000E+00
  0.00000000E+00  0.00000000E+00  0.00000000E+00
  0.00000000E+00  0.00000000E+00  0.00000000E+00
  0.00000000E+00  0.00000000E+00  0.00000000E+00
  0.00000000E+00  0.00000000E+00  0.00000000E+00
  0.00000000E+00  0.00000000E+00  0.00000000E+00
  0.00000000E+00  0.00000000E+00  0.00000000E+00
  0.00000000E+00  0.00000000E+00  0.00000000E+00
  0.00000000E+00  0.00000000E+00  0.00000000E+00
  0.00000000E+00  0.00000000E+00  0.00000000E+00
  0.00000000E+00  0.00000000E+00  0.00000000E+00
  0.00000000E+00  0.00000000E+00  0.00000000E+00
  0.00000000E+00  0.00000000E+00  0.00000000E+00
  0.00000000E+00  0.00000000E+00  0.00000000E+00
  0.00000000E+00  0.00000000E+00  0.00000000E+00
  0.00000000E+00  0.00000000E+00  0.00000000E+00
  0.00000000E+00  0.00000000E+00  0.00000000E+00
  0.00000000E+00  0.00000000E+00  0.00000000E+00
  0.00000000E+00  0.00000000E+00  0.00000000E+00
  0.00000000E+00  0.00000000E+00  0.00000000E+00
  0.00000000E+00  0.00000000E+00  0.00000000E+00
  0.00000000E+00  0.00000000E+00  0.00000000E+00
  0.00000000E+00  0.00000000E+00  0.00000000E+00
  0.00000000E+00  0.00000000E+00  0.00000000E+00
  0.00000000E+00  0.00000000E+00  0.00000000E+00
  0.00000000E+00  0.00000000E+00  0.00000000E+00
  0.00000000E+00  0.00000000E+00  0.00000000E+00
  0.00000000E+00  0.00000000E+00  0.00000000E+00
  0.00000000E+00  0.00000000E+00  0.00000000E+00
  0.00000000E+00  0.00000000E+00  0.00000000E+00
  0.00000000E+00  0.00000000E+00  0.00000000E+00
  0.00000000E+00  0.00000000E+00  0.00000000E+00
  0.00000000E+00  0.00000000E+00  0.00000000E+00
  0.00000000E+00  0.00000000E+00  0.00000000E+00
  0.00000000E+00  0.00000000E+00  0.00000000E+00
  0.00000000E+00  0.00000000E+00  0.00000000E+00
  0.00000000E+00  0.00000000E+00  0.00000000E+00
  0.00000000E+00  0.00000000E+00  0.00000000E+00
  0.00000000E+00  0.00000000E+00  0.00000000E+00
  0.00000000E+00  0.00000000E+00  0.00000000E+00
