Si 
 1.0000000000000000
    10.2114949999999993    0.0000000000000000    0.0000000000000000
     0.0000000000000000   10.2114949999999993    0.0000000000000000
     0.0000000000000000    0.0000000000000000   10.2114949999999993
 100
Cartesian
 10.1263209202049982  7.3925505362799999  0.1643917945565000
  5.8362472178149991  7.4977085117899991  5.1795663973549999
  0.3529572612265000  0.0372934008895000  7.3035675688500001
  9.9949704600199993  1.7656696004499999  8.7148166008399990
  3.3440399596099999  0.1239399782635000  6.4308319371799998
  4.4579098342099996  8.1537562195600000  7.0069032161099987
  3.6023805716149999  6.0770546929049996  5.1562024967949993
  4.5630882327099993  4.7918972011749998  8.8770670448950000
  6.9801082532299992  7.6328984940949987  1.9891175340399998
  4.5502830179800000  0.4506220417055000  0.1299647603135000
 10.1909188375749995  1.5605206658999999  5.5910794343600001
  3.5342392654800001  9.0622218722349999  1.6555998958449998
  0.4431349735715000  4.2585610288200000  2.5736643538199995
  2.3820354386500000  4.0217462482749999  0.8767303685139999
  9.9807764819699987  2.0450663151449997  3.2936666547750000
 10.0002906489149996  5.2093533282699997  0.0253414586817000
  0.9080469813800000  0.2799266912855000  3.5661195528699996
  1.2698504607249999  4.1586007042649999  8.7399368785400000
  6.3337206197299993  3.1972190844999995  2.5831201981900000
  6.8001306538549997  4.9968010598449997  5.1902884671049998
  7.1633433195099991  2.9898031980599997  8.7197181184399994
  1.2396040125349999  9.1528897363399988  5.7273824696200002
  4.0015785456499993  8.2852292176849982  9.1745585287299996
  6.3460458941950000  1.7693559501450000  0.7197214848425000
  7.0191978560899999 10.0955945317499989  1.3363477161649999
  4.4953860208599998  4.2765741060000000  4.8025580019549992
  2.0889451091600000  1.8879726760649997  2.5407424939399998
  2.1352644504799998  1.6897267121349999  4.8623156706949997
  2.2324268254050001  0.8681425012189999  0.3929046296665000
  8.7900038385249992  5.1450209097699995  6.0653216851499998
  8.7606968478749998  0.1304089603460000  3.3215338246299999
  8.3035384282199995  0.6903348445315000  7.8906978968650003
  8.4998442080999990  6.3017177944000000  4.0857518989349995
  6.5232459669299994  1.3195906528699999  3.5440831466599998
  8.0553276192549994  3.7759453521299995  3.7476799339699998
  1.0330458916750000  6.0006829218000002  4.2890831873749997
  8.6871536608849986  0.8201617496625000 10.0590884371250002
  8.2506020381400003  1.9794983057499997  1.7045129568949999
  0.4591598726750000  9.7588500611350000  9.6453697171999995
  8.3686571318349987  2.5148461426199997  6.6515329786149993
  8.8208833994050000  3.1593854955249996 10.1630720907099992
  1.9221709728199998  7.0662013675749993  6.1851535789750001
  6.2468922777450002  5.7539834140949999  3.0718525603850000
  9.4986509570399988  6.8147330917049995  2.3343477569999997
  5.5964813152149997  3.7532145642599994  7.0463400097999997
  4.5127353508649994  0.3417654627064999  8.2651534185150002
  6.6082362398149987  3.8993410577099996  0.3956535641205000
  6.6161705714299996  0.4691456936355000  9.1049467673149991
  2.8102238469900001  2.8438911460049998  9.1380217996199988
  6.6434148400899993  9.3462546056599987  7.3436068407449993
  4.5481386040300000  4.8412799909949999  1.3600077500799999
  1.4297012034549998  6.4029239213449998  1.5644827259600000
  2.0445046829200000  8.9518560342750000  7.9809675126649999
  8.9828989790749993  6.4477932303749999  8.2880884362849994
  5.3883608356200003 10.0332533547749989  5.4742190855799997
  8.9230902528599998  9.2079399058850004  6.0469205711600003
  6.4426772713800000  2.7099469660900000  5.1422535946249992
  7.6972104896049993  8.4232682070949991  4.0899590348750001
  8.1616292822050003  6.8337264724050000  0.3075263199715000
  4.9192958127949993  0.9051336418564999  2.3877436643549999
  8.0111629033799989  8.8203524016649997  9.4524133076800005
  5.9736735175250004  1.4169776806849999  6.8770232112049996
  2.0806533752199998  3.7086209655949993  4.0805134020000002
  9.1257986401049997  9.0372343439699989  1.4960350749749998
  5.6918566785150002  8.3921129358499993  0.3891907089350000
  1.9670913393249998  7.9543359337049990  9.9755073505500000
  3.2587024958949997  4.5593201910549999  6.7416698449799997
  1.1901395307550000  3.0270445203250000  6.6818509072699994
  6.8630334630550003  5.0880509791649997  8.5084831328699995
  7.8382108125649994  0.6524389654369999  5.3976124500899996
  3.3011618921049997  2.3832608180499997  7.0265399209949990
  9.7631695235199984  7.3232349082199999  5.6576379587699996
  1.8941914765199999  7.8957832213749999  3.6740856895049996
  7.5306303716699992  7.4911016745249999  6.6424651710549991
  6.0655973955149998  6.0599504387799996  0.4613338999604999
  4.4672941981149998  1.7362707063449998  4.8448233797599993
  1.2847388204350001  8.9678574469400001  1.5596629003200000
  3.8993410577099996  6.9778515128349996  0.8730103208854999
  1.0954891836000000  6.8698751647049994  8.2339675127850001
  9.8615470663499991  8.4342353527249987  8.0763837219449996
  2.6653840019099997  5.7070309600849995  9.7272046381299990
  9.9312915771999997  3.6912205781149998  4.8275557417149999
  2.0139825243649998  0.9051356841555001  8.3114523368449991
  3.3604804665599999  8.4623271754699996  5.2261206030600000
  0.8436532939099999  2.6911067578150001  0.5022840372095000
  6.4167196510899993  7.5450081566299998  8.7014497538849991
  3.1623366175799998  5.3318095763099995  2.9468944960700001
  5.4398982508849993  9.0780496894849989  3.3274973377099997
  5.0551495422750001  2.3746525277649999  8.9977362813099990
  3.9530739443999998  3.1787158555599997  2.9122775280199997
  4.5610561452049998  7.1065265613299999  3.3388627316449999
  5.5126857872449992  6.1312573083649999  7.0600948935649992
  3.1692804341799996  0.0698816512278500  3.6420624411849998
  8.1712178760099992  4.8004850684699996  1.7401204399599999
  9.8814799045899999  8.6519137916400002  3.5944972974749998
  0.0997879545194000  0.6715334399374999  1.4040703510050001
  3.4016532144000000  6.4572694977350000  7.6839355461049994
  0.8744715858200000  5.1005396375499998  6.6392485501299996
  9.0003197895449993  4.1581411869900000  8.1540115069349994
  4.3600939236049996  2.7032686483599999  0.8718656122960000
