Si100
1.0
10.211495 0.000000 0.000000
0.000000 10.211495 0.000000
0.000000 0.000000 10.211495
Si
100
direct
0.800000 0.600000 0.200000 Si
0.800000 0.800000 0.000000 Si
0.600000 0.200000 0.400000 Si
0.800000 0.200000 0.800000 Si
0.400000 0.000000 0.400000 Si
0.600000 0.800000 0.800000 Si
0.600000 0.600000 0.400000 Si
0.600000 0.600000 0.200000 Si
0.400000 0.000000 0.200000 Si
0.000000 0.000000 0.000000 Si
0.200000 0.200000 0.400000 Si
0.800000 0.200000 0.400000 Si
0.000000 0.200000 0.800000 Si
0.800000 0.200000 0.600000 Si
0.000000 0.200000 0.600000 Si
0.200000 0.000000 0.400000 Si
0.000000 0.000000 0.600000 Si
0.200000 0.200000 0.000000 Si
0.400000 0.200000 0.400000 Si
0.600000 0.800000 0.400000 Si
0.600000 0.800000 0.000000 Si
0.000000 0.400000 0.600000 Si
0.600000 0.200000 0.000000 Si
0.400000 0.600000 0.400000 Si
0.800000 0.000000 0.400000 Si
0.000000 0.400000 0.200000 Si
0.200000 0.000000 0.000000 Si
0.200000 0.400000 0.400000 Si
0.400000 0.400000 0.000000 Si
0.600000 0.000000 0.800000 Si
0.600000 0.000000 0.400000 Si
0.200000 0.000000 0.800000 Si
0.200000 0.800000 0.000000 Si
0.200000 0.600000 0.400000 Si
0.200000 0.400000 0.200000 Si
0.000000 0.800000 0.000000 Si
0.400000 0.800000 0.200000 Si
0.800000 0.600000 0.400000 Si
0.000000 0.200000 0.200000 Si
0.400000 0.000000 0.000000 Si
0.600000 0.600000 0.000000 Si
0.600000 0.400000 0.600000 Si
0.000000 0.000000 0.200000 Si
0.000000 0.600000 0.600000 Si
0.400000 0.200000 0.600000 Si
0.200000 0.400000 0.600000 Si
0.800000 0.200000 0.200000 Si
0.600000 0.200000 0.600000 Si
0.400000 0.200000 0.800000 Si
0.800000 0.000000 0.000000 Si
0.200000 0.200000 0.800000 Si
0.200000 0.600000 0.200000 Si
0.400000 0.000000 0.800000 Si
0.000000 0.600000 0.800000 Si
0.400000 0.400000 0.200000 Si
0.000000 0.800000 0.800000 Si
0.200000 0.600000 0.600000 Si
0.800000 0.800000 0.400000 Si
0.200000 0.600000 0.000000 Si
0.600000 0.000000 0.600000 Si
0.600000 0.000000 0.000000 Si
0.200000 0.000000 0.600000 Si
0.600000 0.600000 0.600000 Si
0.200000 0.800000 0.200000 Si
0.400000 0.400000 0.800000 Si
0.200000 0.000000 0.200000 Si
0.000000 0.600000 0.400000 Si
0.200000 0.200000 0.600000 Si
0.800000 0.600000 0.800000 Si
0.800000 0.800000 0.800000 Si
0.600000 0.200000 0.800000 Si
0.200000 0.600000 0.800000 Si
0.200000 0.800000 0.800000 Si
0.600000 0.800000 0.600000 Si
0.600000 0.400000 0.000000 Si
0.400000 0.800000 0.400000 Si
0.400000 0.800000 0.000000 Si
0.400000 0.400000 0.400000 Si
0.000000 0.600000 0.000000 Si
0.600000 0.600000 0.800000 Si
0.600000 0.400000 0.400000 Si
0.200000 0.800000 0.400000 Si
0.800000 0.000000 0.800000 Si
0.400000 0.600000 0.600000 Si
0.400000 0.200000 0.000000 Si
0.400000 0.200000 0.200000 Si
0.400000 0.600000 0.000000 Si
0.800000 0.000000 0.600000 Si
0.400000 0.800000 0.800000 Si
0.600000 0.000000 0.200000 Si
0.400000 0.000000 0.600000 Si
0.600000 0.400000 0.200000 Si
0.400000 0.800000 0.600000 Si
0.800000 0.400000 0.000000 Si
0.000000 0.800000 0.400000 Si
0.000000 0.200000 0.000000 Si
0.200000 0.400000 0.000000 Si
0.000000 0.800000 0.600000 Si
0.200000 0.800000 0.600000 Si
0.200000 0.200000 0.200000 Si
