Si                                      
   1.00000000000000     
    10.2114949999999993    0.0000000000000000    0.0000000000000000
     0.0000000000000000   10.2114949999999993    0.0000000000000000
     0.0000000000000000    0.0000000000000000   10.2114949999999993
   Si
   100
Direct
  0.3102930000000015  0.5885329999999982  0.3605360000000033
  0.6148570000000007  0.1023539999999983  0.5058959999999999
  0.1439000000000021  0.5461329999999975  0.7827109999999990
  0.7126880000000000  0.5231040000000036  0.4776749999999979
  0.6193209999999993  0.8499139999999983  0.8855629999999977
  0.0076999999999998  0.7102440000000030  0.7976949999999974
  0.5284449999999978  0.6362019999999973  0.8786350000000027
  0.6695610000000016  0.4633040000000008  0.9162379999999999
  0.6939199999999985  0.6954849999999979  0.0440303000000029
  0.0347829999999973  0.5510039999999989  0.4294360000000026
  0.9335579999999979  0.2054749999999999  0.2584969999999984
  0.3845150000000004  0.4458490000000026  0.2046550000000025
  0.8908849999999973  0.7416089999999969  0.4069100000000034
  0.5214509999999990  0.8532679999999999  0.1150799999999990
  0.7975550000000027  0.0458606999999986  0.6678270000000026
  0.0464213999999998  0.3190590000000029  0.8431029999999993
  0.2041439999999994  0.8976690000000005  0.5707650000000015
  0.0240329000000017  0.9618049999999982  0.4055740000000014
  0.7363149999999976  0.9091629999999995  0.4450799999999973
  0.7205999999999975  0.8305360000000022  0.6667130000000014
  0.7460239999999985  0.4292429999999996  0.6971589999999992
  0.9364059999999981  0.8731730000000013  0.6003520000000009
  0.4354160000000036  0.1757059999999981  0.3603510000000014
  0.8650880000000001  0.8818809999999999  0.8277319999999975
  0.8259199999999964  0.0167671000000027  0.2601259999999996
  0.5916660000000036  0.2476559999999992  0.9255950000000013
  0.0023100000000014  0.8518090000000029  0.2090290000000010
  0.8945799999999977  0.2583899999999986  0.6606049999999968
  0.8132220000000032  0.2675950000000000  0.8748620000000003
  0.5804669999999987  0.7501940000000005  0.4999759999999966
  0.0285343999999981  0.9649959999999993  0.0122100000000032
  0.1212609999999970  0.4239620000000031  0.2562659999999966
  0.7543530000000018  0.3086529999999996  0.0924736999999993
  0.1581729999999979  0.7721269999999976  0.9882509999999982
  0.1145619999999994  0.1775639999999967  0.0005984820000009
  0.4505430000000032  0.9362720000000024  0.5257319999999979
  0.2027039999999971  0.1536770000000018  0.7800950000000029
  0.9866620000000026  0.3515190000000032  0.0856600999999984
  0.9330939999999970  0.7371079999999992  0.0102681999999987
  0.8459029999999998  0.5222660000000019  0.0723337000000015
  0.9608909999999966  0.0993609000000006  0.8342590000000030
  0.5637159999999994  0.0022891599999966  0.7138729999999995
  0.4112870000000015  0.7905889999999971  0.3138920000000027
  0.5523850000000010  0.6167939999999987  0.3196299999999965
  0.4647799999999975  0.7913709999999980  0.7198700000000002
  0.0597168999999980  0.0854556000000031  0.6138189999999994
  0.8658980000000014  0.1196660000000023  0.4658799999999985
  0.4615989999999996  0.2917679999999976  0.5420889999999972
  0.4732940000000028  0.0351913000000010  0.9403810000000021
  0.1021989999999988  0.9235609999999994  0.7891329999999996
  0.3790090000000035  0.8196930000000009  0.9466650000000030
  0.0854815000000002  0.7030239999999992  0.5859230000000011
  0.1280229999999989  0.1726549999999989  0.3921899999999994
  0.2599480000000014  0.2330639999999988  0.2068610000000035
  0.3268720000000016  0.9675590000000014  0.7498670000000018
  0.4533229999999975  0.5063719999999989  0.5244339999999994
  0.6835450000000023  0.1971040000000031  0.2911390000000011
  0.1453289999999967  0.7693549999999973  0.3593899999999977
  0.3514860000000013  0.2113129999999970  0.9797879999999992
  0.3406670000000034  0.7224160000000026  0.5318970000000007
  0.2384640000000005  0.7602959999999968  0.7676939999999988
  0.7852079999999972  0.8986820000000009  0.0595483999999971
  0.3642400000000023  0.5706289999999967  0.7221680000000035
  0.3760520000000014  0.0569374999999965  0.1502040000000022
  0.2959219999999974  0.5977329999999981  0.9410230000000013
  0.6221729999999965  0.4845540000000028  0.1405850000000015
  0.5190470000000005  0.2596980000000002  0.1444649999999967
  0.9936190000000025  0.4714639999999974  0.6409530000000032
  0.8496710000000007  0.6439840000000032  0.5985609999999966
  0.1109750000000034  0.0590104999999994  0.2080279999999988
  0.2184389999999965  0.5322000000000031  0.5609249999999975
  0.7288959999999989  0.3029610000000034  0.4989980000000003
  0.0062199999999990  0.6316410000000019  0.2154620000000023
  0.7787190000000024  0.6662499999999980  0.8259290000000021
  0.6586300000000023  0.2158900000000017  0.7034730000000025
  0.2749009999999998  0.9829440000000034  0.3654200000000003
  0.0635175999999973  0.5418740000000000  0.9926010000000005
  0.9766400000000033  0.3311020000000013  0.4558749999999989
  0.5659559999999999  0.3853859999999969  0.3555940000000035
  0.6398480000000006  0.0653158000000005  0.1168469999999999
  0.2291430000000005  0.3894670000000033  0.0304927999999975
  0.2913280000000000  0.3660369999999986  0.8101270000000014
  0.1616330000000019  0.3023219999999966  0.6135689999999983
  0.4569720000000004  0.4285369999999986  0.9823769999999996
  0.2590930000000000  0.8626620000000003  0.1662290000000013
  0.8960670000000022  0.4797930000000008  0.8534629999999979
  0.3061980000000020  0.1200919999999996  0.5636349999999979
  0.2480630000000019  0.9972720000000024  0.9593929999999986
  0.6075250000000025  0.6056760000000025  0.6682150000000036
  0.5200689999999994  0.3904289999999975  0.7525109999999984
  0.7188700000000026  0.0501703999999989  0.9041860000000028
  0.4254639999999981  0.1867670000000032  0.7528270000000035
  0.4432559999999981  0.6551219999999986  0.1021500000000017
  0.8135240000000010  0.3804420000000022  0.2968929999999972
  0.7836539999999985  0.6070270000000022  0.2730140000000034
  0.2823580000000021  0.3516710000000032  0.4151960000000017
  0.5454450000000008  0.9863830000000036  0.3111170000000030
  0.7035419999999988  0.8119920000000036  0.2507009999999994
  0.8743860000000012  0.1183910000000026  0.0574774999999974
  0.2149950000000018  0.6154640000000029  0.1488000000000014
 
  0.00000000E+00  0.00000000E+00  0.00000000E+00
  0.00000000E+00  0.00000000E+00  0.00000000E+00
  0.00000000E+00  0.00000000E+00  0.00000000E+00
  0.00000000E+00  0.00000000E+00  0.00000000E+00
  0.00000000E+00  0.00000000E+00  0.00000000E+00
  0.00000000E+00  0.00000000E+00  0.00000000E+00
  0.00000000E+00  0.00000000E+00  0.00000000E+00
  0.00000000E+00  0.00000000E+00  0.00000000E+00
  0.00000000E+00  0.00000000E+00  0.00000000E+00
  0.00000000E+00  0.00000000E+00  0.00000000E+00
  0.00000000E+00  0.00000000E+00  0.00000000E+00
  0.00000000E+00  0.00000000E+00  0.00000000E+00
  0.00000000E+00  0.00000000E+00  0.00000000E+00
  0.00000000E+00  0.00000000E+00  0.00000000E+00
  0.00000000E+00  0.00000000E+00  0.00000000E+00
  0.00000000E+00  0.00000000E+00  0.00000000E+00
  0.00000000E+00  0.00000000E+00  0.00000000E+00
  0.00000000E+00  0.00000000E+00  0.00000000E+00
  0.00000000E+00  0.00000000E+00  0.00000000E+00
  0.00000000E+00  0.00000000E+00  0.00000000E+00
  0.00000000E+00  0.00000000E+00  0.00000000E+00
  0.00000000E+00  0.00000000E+00  0.00000000E+00
  0.00000000E+00  0.00000000E+00  0.00000000E+00
  0.00000000E+00  0.00000000E+00  0.00000000E+00
  0.00000000E+00  0.00000000E+00  0.00000000E+00
  0.00000000E+00  0.00000000E+00  0.00000000E+00
  0.00000000E+00  0.00000000E+00  0.00000000E+00
  0.00000000E+00  0.00000000E+00  0.00000000E+00
  0.00000000E+00  0.00000000E+00  0.00000000E+00
  0.00000000E+00  0.00000000E+00  0.00000000E+00
  0.00000000E+00  0.00000000E+00  0.00000000E+00
  0.00000000E+00  0.00000000E+00  0.00000000E+00
  0.00000000E+00  0.00000000E+00  0.00000000E+00
  0.00000000E+00  0.00000000E+00  0.00000000E+00
  0.00000000E+00  0.00000000E+00  0.00000000E+00
  0.00000000E+00  0.00000000E+00  0.00000000E+00
  0.00000000E+00  0.00000000E+00  0.00000000E+00
  0.00000000E+00  0.00000000E+00  0.00000000E+00
  0.00000000E+00  0.00000000E+00  0.00000000E+00
  0.00000000E+00  0.00000000E+00  0.00000000E+00
  0.00000000E+00  0.00000000E+00  0.00000000E+00
  0.00000000E+00  0.00000000E+00  0.00000000E+00
  0.00000000E+00  0.00000000E+00  0.00000000E+00
  0.00000000E+00  0.00000000E+00  0.00000000E+00
  0.00000000E+00  0.00000000E+00  0.00000000E+00
  0.00000000E+00  0.00000000E+00  0.00000000E+00
  0.00000000E+00  0.00000000E+00  0.00000000E+00
  0.00000000E+00  0.00000000E+00  0.00000000E+00
  0.00000000E+00  0.00000000E+00  0.00000000E+00
  0.00000000E+00  0.00000000E+00  0.00000000E+00
  0.00000000E+00  0.00000000E+00  0.00000000E+00
  0.00000000E+00  0.00000000E+00  0.00000000E+00
  0.00000000E+00  0.00000000E+00  0.00000000E+00
  0.00000000E+00  0.00000000E+00  0.00000000E+00
  0.00000000E+00  0.00000000E+00  0.00000000E+00
  0.00000000E+00  0.00000000E+00  0.00000000E+00
  0.00000000E+00  0.00000000E+00  0.00000000E+00
  0.00000000E+00  0.00000000E+00  0.00000000E+00
  0.00000000E+00  0.00000000E+00  0.00000000E+00
  0.00000000E+00  0.00000000E+00  0.00000000E+00
  0.00000000E+00  0.00000000E+00  0.00000000E+00
  0.00000000E+00  0.00000000E+00  0.00000000E+00
  0.00000000E+00  0.00000000E+00  0.00000000E+00
  0.00000000E+00  0.00000000E+00  0.00000000E+00
  0.00000000E+00  0.00000000E+00  0.00000000E+00
  0.00000000E+00  0.00000000E+00  0.00000000E+00
  0.00000000E+00  0.00000000E+00  0.00000000E+00
  0.00000000E+00  0.00000000E+00  0.00000000E+00
  0.00000000E+00  0.00000000E+00  0.00000000E+00
  0.00000000E+00  0.00000000E+00  0.00000000E+00
  0.00000000E+00  0.00000000E+00  0.00000000E+00
  0.00000000E+00  0.00000000E+00  0.00000000E+00
  0.00000000E+00  0.00000000E+00  0.00000000E+00
  0.00000000E+00  0.00000000E+00  0.00000000E+00
  0.00000000E+00  0.00000000E+00  0.00000000E+00
  0.00000000E+00  0.00000000E+00  0.00000000E+00
  0.00000000E+00  0.00000000E+00  0.00000000E+00
  0.00000000E+00  0.00000000E+00  0.00000000E+00
  0.00000000E+00  0.00000000E+00  0.00000000E+00
  0.00000000E+00  0.00000000E+00  0.00000000E+00
  0.00000000E+00  0.00000000E+00  0.00000000E+00
  0.00000000E+00  0.00000000E+00  0.00000000E+00
  0.00000000E+00  0.00000000E+00  0.00000000E+00
  0.00000000E+00  0.00000000E+00  0.00000000E+00
  0.00000000E+00  0.00000000E+00  0.00000000E+00
  0.00000000E+00  0.00000000E+00  0.00000000E+00
  0.00000000E+00  0.00000000E+00  0.00000000E+00
  0.00000000E+00  0.00000000E+00  0.00000000E+00
  0.00000000E+00  0.00000000E+00  0.00000000E+00
  0.00000000E+00  0.00000000E+00  0.00000000E+00
  0.00000000E+00  0.00000000E+00  0.00000000E+00
  0.00000000E+00  0.00000000E+00  0.00000000E+00
  0.00000000E+00  0.00000000E+00  0.00000000E+00
  0.00000000E+00  0.00000000E+00  0.00000000E+00
  0.00000000E+00  0.00000000E+00  0.00000000E+00
  0.00000000E+00  0.00000000E+00  0.00000000E+00
  0.00000000E+00  0.00000000E+00  0.00000000E+00
  0.00000000E+00  0.00000000E+00  0.00000000E+00
  0.00000000E+00  0.00000000E+00  0.00000000E+00
  0.00000000E+00  0.00000000E+00  0.00000000E+00
