Si 
 1.0000000000000000
    10.2114949999999993    0.0000000000000000    0.0000000000000000
     0.0000000000000000   10.2114949999999993    0.0000000000000000
     0.0000000000000000    0.0000000000000000   10.2114949999999993
 100
Cartesian
  3.1685554180349995  6.0098017868349993  3.6816115613200000
  6.2786091812149998  1.0451873592299998  5.1659544745199995
  1.4694341304999998  5.5768343988349995  7.9926494629449998
  7.2776099485599994  5.3416738804800001  4.8777758741249997
  6.3241932948949993  8.6788925614299988  9.0429221466849992
 10.2901235114999992  7.2526530547799997  8.1456585040250005
  5.3962134752750002  6.4965735419900001  8.9721769093250003
  6.8372188036949995  4.7310264794799997  9.3561597558099994
  7.0859606103999990  7.1019416000749995  0.4496151882985000
  0.3551864305850000  5.6265745909799998  4.3851835668199994
  9.5330228492099991  2.0982069351249999  2.6396408230149997
  3.9264729999249997  4.5527848342549992  2.0898335092250000
  9.0972677230749994  7.5729365954549994  4.1551594304499995
  5.3247942792449994  8.7131419156599996  1.1751388446000000
  8.1442288947249999  0.4683063087464999  6.8195120713649988
  0.4740318939930000  3.2580693832049996  8.6093420689850007
  2.0846154352799999  9.1665425051550002  5.8283639436749990
  0.2454118381855000  9.8214669484749990  4.1415168731299996
  7.5188769409249998  9.2839134286850005  4.5449321945999994
  7.3584032969999997  8.4810142113199998  6.8081364659349992
  7.6180203458799998  4.3832127482849996  7.1190356427049997
  9.5621051869699993  8.9164017236349995  6.1304914462399998
  4.4462483069200003  1.7942209404699998  3.6797224347449995
  8.8338417865599990  9.0053234220949996  8.4523811793399997
  8.4338779503999994  0.1712171578145000  2.6562753483699999
  6.0417944006699997  2.5289380057199997  9.4517087145249992
 10.2350835534500000  8.6982433444549994  2.1344985883549996
  9.1349991970999991  2.6385481930500001  6.7457646544749998
  8.3042123868899989  2.7325450045249999  8.9336489386900002
  5.9274358681649995  7.6606022800300000  5.1055024241199991
  0.2913788829280000  9.8540518290199994 10.3361773539499993
  1.2382560951949999  4.3292858431900001  2.6168589776699998
  7.7030718877349997  3.1518085662349997  0.9442947251815000
  1.6151827986350000  7.8845709998649998 10.0915201452449992
  1.1698492901899999  1.8131938981800000  0.0061113959505900
  4.6007175917850001  9.5607368466399993  5.3685096893399997
  2.0699108824799999  1.5692719171150000  7.9659361920249996
 10.0752940796899999  3.5895345109050001  0.8747176828495000
  9.5282847155299990  7.5269746564599993  0.1048536729590000
  8.6379342549849998  5.3331166476699998  0.7386352158814999
  9.8121336420449996  1.0146233335454999  8.5190316072049992
  5.7563831154199994  0.0233757458942000  7.2897105701349991
  4.1998551440650003  8.0730956205549997  3.2053065885399996
  5.6406766655749996  6.2983888470299991  3.2639001468500002
  4.7460986461000001  8.0810810096450005  7.3509489056499993
  0.6097988257655000  0.8726294321220001  6.2680096494049993
  8.8421130975099995  1.2219687606699998  4.7573312905999998
  4.7136158805049995  2.9793874731600001  5.5355391130550000
  4.8330393145299997  0.3593557839935000  9.6026958795950002
  1.0436045775050000  9.4309385336949987  8.0582276838349998
  3.8702485084549996  8.3702909710349989  9.6668649141749992
  0.8728939098424999  7.1789260608799994  5.9831497848849997
  1.3073062243850000  1.7630656692250000  4.0048462240499996
  2.6544577022599998  2.3799318706799997  2.1123600671949996
  3.3378517936399996  9.8802238907049986  7.6572631211649993
  4.6291055478849996  5.1708151461399998  5.3552551688299994
  6.9800163497749992  2.0127265104799998  2.9729644428049995
  1.4840263568550001  7.8562647357249995  3.6699091880499997
  3.5891975315700000  2.1578216429349997 10.0051002630599992
  3.4787193671649996  7.3769473719199992  5.4314635560149993
  2.4350739436800000  7.7637588025199991  7.8393034425299994
  8.0181475659599997  9.1768867495899986  0.6080781888580000
  3.7194349387999996  5.8269751803550003  7.3744149211599996
  3.8400531177399997  0.5814169965625000  1.5338073949800000
  3.0218060233899999  6.1037475408349993  9.6092516593850004
  6.3533164786349996  4.9480207482299994  1.4355830245749999
  5.3002458452649996  2.6519048285099998  1.4752036251750000
 10.1463354504049992  4.8143522786799995  6.5450883547349994
  8.6764111681449982  6.5760393960799997  6.1122026586949998
  1.1332206576249999  0.6025854256975000  2.1242768818599997
  2.2305887563050000  5.4345576389999994  5.7278828328749993
  7.4431178595199992  3.0936847366949998  5.0955155820100000
 10.2750104988999986  6.4499989132949995  2.2001891356899996
  7.9518851749049997  6.8034085437499998  8.4339698538550003
  6.7255969518500001  2.2045596555499998  7.1835110221349998
  2.8071501869950000 10.0373277412800004  3.7314845028999999
  0.6486096548119998  5.5333436416299993 10.1359401484949991
  9.9729544767999982  3.3810464174899999  4.6551652831249992
  5.7792568642199997  3.9353672120699996  3.6311463530300001
  6.5338046527599989  0.6669719651209999  1.1931825562650000
  2.3398925987850001  3.9770403231649998  0.3113770747360000
  2.9748944153599997  3.7377849953149997  8.2726078098650007
  1.6505145713349998  3.0871595913899994  6.2654567756550001
  4.6663672931399995  4.3760034328149997 10.0315378236149986
  2.6457268740350002  8.8090686996900001  1.6974466023549997
  9.1501836901649991  4.8994038205350003  8.7151331571849990
  3.1267393460099999  1.2263188575399999  5.7555559843249995
  2.5330940841850000 10.1836380416400001  9.7968368225349991
  6.2037384998749996  6.1848574456199996  6.8234741314249998
  5.3106819931549998  3.9868637813549999  7.6842623139450001
  7.3407374106499992  0.5123147887480000  9.2330908180700000
  4.3446235086799998  1.9071702866649998  7.6874891463649995
  4.5263064277199998  6.6897750273899996  1.0431042142500000
  8.3072962583799992  3.8848815807899997  3.0317213850350000
  8.0022789027299996  6.1986531753649992  2.7878810959299996
  2.8832973052099997  3.5910866581450001  4.2397718780200000
  5.5698088902749996 10.0724450725849994  3.1769696899149995
  7.1842156152899994  8.2916522480400001  2.5600320079949999
  8.9287882670699990  1.2089491045449998  0.5869312038625000
  2.1954203675249997  6.2848075586799999  1.5194704559999999
