Ni80 P20                                
   1.00000000000000     
    14.0000000000000000    0.0000000000000000    0.0000000000000000
     0.0000000000000000   14.0000000000000000    0.0000000000000000
     0.0000000000000000    0.0000000000000000   14.0000000000000000
   Ni   P 
    80    20
Direct
  0.5901788133360234  0.1204136500676549  0.1267144828905481
  0.6329327179583349  0.7800665734190266  0.2757473380918573
  0.4356269881777052 -0.1171858564284427  1.1423018703700822
  0.5624681116541250  0.7824853606662041  0.1382005115042963
  0.7508051682185294  1.1134103908481596  0.1744652323569611
  0.2984842729199154  0.9651976513213125  0.4567800738823491
  0.5457924491423964 -0.0412547253024785  1.0268774731831425
  0.4349257638787296  0.8437134607780211  0.4541138011358944
  1.0288071746834564 -0.1085530230079944  0.5541356062605011
  0.6020758706810837  0.9365858915016012  0.1695038715967820
  0.7145144175796788  0.0888743597978537  0.0137534294729171
  0.5526567394553193  0.6408543310859984  0.0244473199296044
  0.6796351786200437 -0.1840939774969357  0.5961980835851322
  0.6984661157886323 -0.0238356576665463  0.5838643636423998
 -0.1215285781418919  0.8996072768109802  0.6439898774629064
  0.5986044107211913  0.8242486388854174  0.4224161413360406
  0.1325753711787827  0.8138275448782255  0.1288880057209983
 -0.2125669286769134 -0.0717884074317665  0.4439960295582376
  0.9789446307688512  0.7544243221926372  0.7276288436707885
  0.6790810206857589  0.5358386620866464  0.0687080164480160
  0.4257602321331030  0.7170879636111482  0.8452150626354222
  0.5040460235419559  0.2992280191055737  0.2055287232409928
  0.2758781557506755  0.8399259202555616  0.8869722954315087
  0.3834116872977776  0.8632737651321113  0.7667669076741425
  1.0178458089025557  0.9137320831527531  0.7110529951018273
 -0.2076964589523780  0.0269219924385301  0.3009829654188186
  0.4451922310096639  0.0438778563244773  0.3902800598164626
  0.5895775705930706  0.6740411060135021  0.8425112988878620
  0.0898541589699144  0.7965515929084803  0.3877266330576949
  0.9054420546508174  0.7144775696068435  0.8798374292740685
  0.9289735095176349  0.7833735103109046  1.0452845160701039
  0.4212100017498236 -0.1757051657346997  0.9817502183518425
  0.7787657475946264  0.9407203542813549  0.7372546352942282
  0.9359802760442493  0.9102455873894569  0.3280154671131351
  0.4681312162771094  0.0437574832157611  0.2165642005445416
  0.8461264280352216  0.9339369185526805  1.1833445065091814
  0.2352986967184953 -0.0444382264869470  0.0041955017966971
  0.8013816489364332  0.9838167349283711  0.9289752871736057
  0.9483942945508103  0.9334585307795764  0.9818167990678380
  0.4199437229610588 -0.2755523154905986  0.1000946596259892
  0.6084551188372461  0.7962458148431932  0.9670495874357863
  0.3497066039740939  0.7779912035209740  0.3285296729202165
  0.3761775781522479 -0.0264527657703155 -0.0923968805411475
  0.6211330208918087  0.0256469699378448  0.3287117984138829
  0.4902039589045114  0.8666254435533221  0.2897251732944447
  0.7395647656375318  0.6356110388724214  0.2499478291848439
  0.1693374362095723  0.9425842749901090  0.6298644661538546
 -0.5054846151108894  0.4855242680215490  0.2190042082356859
  0.6030544606626677  0.5559665871700370  0.3438085616433819
  0.0682117375996582  0.9132070669994464  0.2514433662311374
  0.6602226253536014  0.8385856702253089  0.7762975490150191
  0.8291774875061868  0.6572733362144250  1.0117730014827258
  0.5045645894184276  0.1187927811071927  0.0080559052110515
  0.8402358463097883  0.7580708671338426  0.2333677682595864
  0.3410874000996409  0.9201175118177647  0.6053198843201899
  0.4049842483195522  0.6363629456211570  0.2502420602043553
  0.7186924038218787 -0.3282489936850870  0.5565748110428776
  0.5518569981152054  0.7606316268310401  0.7011617167501577
  0.2150143838636895  0.8959532364644403  0.3032307048793988
  0.5487703994742187  0.7202121884225997  0.5140362616502515
  0.8728952724863549  0.8755405700611507  0.8339672315721083
  0.2790303818484231  0.7899874690750502  0.4956303717161011
  1.5132017585012947  0.8751375994007068  0.8402458637497344
  0.5686336458535480 -0.0237530760676625  0.7055810258574320
  0.5056949658190036  0.7101097236063126  0.3568351955087739
  0.8104534748407650  0.7717683274594088  0.7199926380567312
  0.2999480146905470 -0.0495083173622212  0.1704542314507069
  1.0987118348321325  0.8603844338523073  0.9873965645624325
  0.6146961453694145  0.3827831388918064  0.1124304557177634
 -0.0995378460616259  0.7477624920894596  0.5612293050853144
  0.5608095575554725  0.6298135487620041  1.1828275754579749
  0.6433739596179439  0.9599073508530230  0.8753696177962026
  0.5635817298040842 -0.0359664659706620  0.4691395197906167
  0.6570664247722737  0.2233726009641559  0.2262608836936647
  0.5147594053998873  0.8687315598430742  0.5992177794086233
  0.7267743301683058  0.7600024465184155  0.0986078615047839
  0.7699661831274974 -0.2207115398076716  0.3765450788635137
  0.7304712950040217  0.9297109438679236  0.0550419519635513
  0.7570836072364517 -0.1648117171300679  0.9276127726401002
  0.1206553924285665  0.8894212015783233  0.8329423369564410
  0.5302088386039127  0.0438354546233926  0.8630997032054424
  0.1543293925275850  0.8521206255543892  0.5048804087918960
  0.8302976960971434  1.0301064452152089  1.0629639992404116
  0.7013609476438627  0.9176832348640191  0.2603271038042096
  0.3802417231753758  0.0224442606815967  0.0602369899517144
  0.1511724579026839 -0.0438361872857702  0.1296526440281429
  0.6663843849369980  0.5156335229121652  0.2128553319888697
  0.2826162653228328  0.7224331583573336  0.1844806421949686
  0.5807599952961323  0.2553994866684474  0.0784754632576938
  0.3911059900919183  0.7794131775688415  0.5949739210768523
  0.9759235535175974 -0.1893049787549398  1.1869648927383989
  0.3703108073842854 -0.0647974926681421  0.3276987119374032
  0.0170711889139617  0.8166856042577368  0.8599638849124804
  0.4448756514540730  1.0032889123815734  0.5500033674449273
  0.6947045747375330 -0.3153180220447124  0.7273535096507784
  0.7018263251566518  0.6533487766373117 -0.0502727269068569
  0.5368093190791805  0.1685787991297980  0.3030435630638453
 -0.3079772429108998  0.6625447579189228  0.4108323024690098
  0.4086184687981093  0.6436332479116106 -0.0362496318195277
  0.8989278539557948 -0.1573497660554350  0.4373946202864498
 
  0.31418375E-02 -0.77099804E-02  0.43619471E-03
 -0.71423399E-02 -0.20785118E-02 -0.45270042E-02
  0.15802802E-03 -0.75198439E-02  0.21933272E-02
 -0.40791742E-02 -0.47688212E-02 -0.29211976E-02
 -0.56714646E-02 -0.25703247E-02  0.22489962E-02
 -0.88754718E-02  0.53712864E-02 -0.93575854E-02
 -0.21590410E-02  0.16469867E-01  0.30939864E-03
 -0.21535093E-02  0.29953011E-02  0.66750699E-02
 -0.22128863E-02 -0.13761130E-01  0.89020362E-03
  0.56051697E-02  0.55862080E-02  0.43822253E-02
  0.42908079E-02  0.51076232E-02 -0.80263668E-02
  0.28793405E-03  0.37810831E-02  0.11074179E-02
  0.32799094E-02  0.72921959E-03  0.10298396E-01
  0.69410424E-02 -0.47459101E-02 -0.65711880E-03
  0.34159997E-02  0.17230095E-02  0.49963716E-02
 -0.75060060E-02  0.62046038E-02  0.17796298E-02
  0.12963942E-01  0.68073571E-02 -0.19649662E-02
  0.23769401E-02  0.54614298E-02 -0.44999743E-02
 -0.58600933E-02 -0.15229989E-02 -0.50477696E-02
  0.65078061E-02  0.88808133E-02 -0.59215561E-02
 -0.67179308E-02 -0.62567829E-02  0.97284970E-02
 -0.45012993E-03 -0.53199813E-02 -0.34493992E-02
 -0.68055158E-02  0.28357882E-03 -0.44682699E-02
  0.41005973E-02 -0.88414871E-03 -0.21493795E-02
 -0.14287347E-02 -0.66350578E-02 -0.10483149E-03
 -0.43142267E-02  0.22925962E-02 -0.54720690E-02
 -0.30104338E-02  0.20867773E-02  0.26117218E-02
 -0.25340444E-02 -0.79869099E-02 -0.38126590E-02
 -0.12918141E-01 -0.68304278E-03 -0.59774922E-03
  0.80909710E-04 -0.17582863E-02 -0.40952231E-03
 -0.69072479E-02  0.19323505E-02  0.56498063E-02
  0.26041040E-04  0.33387435E-02 -0.22100050E-02
 -0.78751630E-02  0.70967159E-02 -0.39801624E-02
 -0.41490403E-03 -0.51728534E-02  0.35410860E-02
 -0.35186628E-02  0.58499746E-02 -0.26067168E-02
  0.37496717E-02  0.61754295E-02 -0.46188041E-02
  0.33822280E-02 -0.42808950E-02 -0.49144371E-03
  0.70805822E-03 -0.37517434E-02  0.61678412E-02
  0.92266371E-02  0.73347982E-02 -0.33591960E-03
 -0.12283017E-02  0.37304145E-03 -0.40362867E-02
  0.61117760E-03 -0.93435617E-02 -0.11637139E-01
  0.36936108E-02  0.11101406E-01 -0.61351588E-02
 -0.51705653E-02 -0.10666917E-01 -0.19011321E-02
  0.71315678E-02  0.74341344E-03  0.12883655E-02
 -0.21266936E-02 -0.64233155E-02 -0.52713793E-02
  0.14145877E-03 -0.44305583E-02  0.14148781E-03
 -0.82052812E-03 -0.64932450E-02 -0.97400817E-03
  0.38139823E-02 -0.51296627E-02  0.60472723E-02
 -0.25117644E-02  0.39477833E-02  0.89597423E-02
  0.13889748E-02  0.84173725E-02 -0.88338877E-02
 -0.31325310E-02  0.67415720E-02  0.89994921E-02
  0.16957340E-02  0.69347541E-02 -0.33200554E-03
 -0.29840953E-02  0.47413083E-02  0.30266391E-02
  0.95694431E-02  0.96687692E-03  0.30737919E-02
  0.25718392E-02 -0.54908215E-02 -0.11594646E-02
  0.34776009E-02  0.57426100E-02  0.59368117E-03
 -0.77517209E-02  0.26069190E-02  0.47813867E-02
 -0.52674201E-02 -0.43024270E-02 -0.36289576E-02
  0.50824877E-02  0.24194794E-02  0.17808994E-02
  0.12206752E-02 -0.83067552E-02  0.32768728E-02
 -0.11771549E-02 -0.59876534E-03  0.32870257E-02
  0.13687813E-02 -0.25775481E-02  0.26372656E-02
 -0.31389979E-02 -0.11066169E-02  0.47551797E-02
 -0.15681858E-02 -0.62960668E-02  0.91166393E-02
 -0.10716169E-02 -0.45069880E-02  0.47653720E-03
  0.24435124E-02 -0.14833158E-02  0.55563951E-02
 -0.37289736E-02 -0.83014341E-02  0.24281971E-03
  0.86202292E-02 -0.80771323E-02 -0.41905149E-02
  0.28780669E-03  0.89576422E-02 -0.52088205E-02
  0.25242555E-02  0.21492186E-02  0.27914214E-02
 -0.51561945E-02  0.66144033E-02  0.70813973E-02
 -0.58711520E-02  0.30229192E-02 -0.11468278E-02
  0.63408353E-02  0.55683822E-02  0.85555699E-02
  0.33261557E-02  0.44048746E-02 -0.54038990E-02
 -0.64473473E-02 -0.10033660E-01  0.77517049E-02
  0.56415036E-02 -0.92942454E-04  0.47921252E-02
 -0.70853579E-02  0.74062086E-02 -0.83758160E-02
  0.31299702E-02 -0.32690995E-02 -0.70554711E-02
 -0.34124109E-03  0.44484593E-02  0.77929352E-03
  0.38536744E-02  0.60578291E-02 -0.34996569E-02
 -0.10093050E-02 -0.12669672E-02  0.10153144E-01
  0.70555400E-02  0.47344489E-02  0.49678325E-02
  0.21864168E-02  0.51864021E-02 -0.11440336E-02
  0.77634765E-02 -0.95924309E-03 -0.58658885E-02
 -0.56841316E-02 -0.11535079E-02 -0.17231051E-01
  0.59857206E-03 -0.60341882E-02  0.74366292E-02
  0.13740431E-02 -0.31798191E-02  0.14477783E-01
  0.55378647E-02 -0.13915412E-01 -0.42918971E-02
  0.70457363E-02 -0.55207933E-02 -0.18013892E-02
 -0.29779088E-02 -0.13083540E-01  0.55833708E-02
  0.47550585E-02  0.46314569E-02 -0.13663473E-01
  0.43004411E-02 -0.99202258E-02  0.25639540E-03
  0.10114354E-01  0.54887027E-02 -0.10447903E-01
 -0.58362477E-02  0.48251897E-02 -0.89576774E-02
 -0.16671822E-02 -0.29940485E-02  0.39427550E-02
  0.24184236E-02  0.30679975E-02 -0.32477736E-02
  0.31065037E-02  0.79831551E-03 -0.70072547E-02
  0.35201002E-02 -0.39482027E-02  0.91811223E-02
 -0.90803999E-02 -0.29462351E-02  0.82991957E-02
  0.61866279E-02  0.86443967E-02 -0.27445197E-02
 
           1
   3.00000000000000     
  0.24961954E+01 -0.42862484E-03  0.35335815E-03  0.24962330E+01
  0.59085206E+00  0.11876151E+00  0.12680795E+00
  0.63140222E+00  0.77962118E+00  0.27477727E+00
  0.43566085E+00  0.88120275E+00  0.14277187E+00
  0.56159400E+00  0.78146347E+00  0.13757454E+00
  0.74958985E+00  0.11285961E+00  0.17494716E+00
  0.29658239E+00  0.96634864E+00  0.45477488E+00
  0.54532980E+00  0.96227453E+00  0.26943773E-01
  0.43446430E+00  0.84435531E+00  0.45554417E+00
  0.28332985E-01  0.88849816E+00  0.55432636E+00
  0.60327698E+00  0.93778294E+00  0.17044292E+00
  0.71543388E+00  0.89968850E-01  0.12033494E-01
  0.55271844E+00  0.64166456E+00  0.24684624E-01
  0.68033802E+00  0.81606228E+00  0.59840488E+00
  0.69995348E+00  0.97514736E+00  0.58372355E+00
  0.87920342E+00  0.89997649E+00  0.64506053E+00
  0.59699598E+00  0.82557820E+00  0.42279749E+00
  0.13535336E+00  0.81528626E+00  0.12846694E+00
  0.78794242E+00  0.92938190E+00  0.44303175E+00
  0.97768890E+00  0.75409797E+00  0.72654718E+00
  0.68047555E+00  0.53774169E+00  0.67439112E-01
  0.42432068E+00  0.71574722E+00  0.84729974E+00
  0.50394957E+00  0.29808802E+00  0.20478957E+00
  0.27441983E+00  0.83998669E+00  0.88601481E+00
  0.38429039E+00  0.86308430E+00  0.76630633E+00
  0.17539651E-01  0.91231029E+00  0.71103053E+00
  0.79137906E+00  0.27413263E-01  0.29981038E+00
  0.44454714E+00  0.44325023E-01  0.39083971E+00
  0.58903456E+00  0.67232963E+00  0.84169430E+00
  0.87085986E-01  0.79640523E+00  0.38759854E+00
  0.90545939E+00  0.71410079E+00  0.87974967E+00
  0.92749338E+00  0.78378759E+00  0.46495189E-01
  0.42121558E+00  0.82501028E+00  0.98127665E+00
  0.77707821E+00  0.94224108E+00  0.73640174E+00
  0.93589137E+00  0.90913712E+00  0.32877427E+00
  0.46737722E+00  0.45011049E-01  0.21600562E+00
  0.84692993E+00  0.93526022E+00  0.18235476E+00
  0.23602346E+00  0.95464444E+00  0.40901924E-02
  0.80153338E+00  0.98301279E+00  0.93029697E+00
  0.95037143E+00  0.93503027E+00  0.98174482E+00
  0.41968052E+00  0.72452762E+00  0.99229741E-01
  0.60858609E+00  0.79424362E+00  0.96455591E+00
  0.35049809E+00  0.78037008E+00  0.32721500E+00
  0.37506960E+00  0.97126147E+00  0.90719573E+00
  0.62266121E+00  0.25806273E-01  0.32898788E+00
  0.48974824E+00  0.86524902E+00  0.28859559E+00
  0.73959508E+00  0.63466163E+00  0.24997815E+00
  0.16916161E+00  0.94119287E+00  0.62965575E+00
  0.49533267E+00  0.48442505E+00  0.22030005E+00
  0.60251623E+00  0.55681254E+00  0.34572851E+00
  0.68509375E-01  0.91501079E+00  0.24955039E+00
  0.65955137E+00  0.84003029E+00  0.77822601E+00
  0.82954086E+00  0.65875935E+00  0.11701857E-01
  0.50392514E+00  0.11980878E+00  0.87044707E-02
  0.84228644E+00  0.75827806E+00  0.23402644E+00
  0.34163851E+00  0.91894091E+00  0.60507143E+00
  0.40572945E+00  0.63759350E+00  0.25036928E+00
  0.71703132E+00  0.67230963E+00  0.55759939E+00
  0.55072827E+00  0.75970968E+00  0.70038408E+00
  0.21610349E+00  0.89647170E+00  0.30361233E+00
  0.54903197E+00  0.71843217E+00  0.51473845E+00
  0.87264303E+00  0.87541226E+00  0.83467159E+00
  0.27932369E+00  0.78943514E+00  0.49619550E+00
  0.51252912E+00  0.87490047E+00  0.84126483E+00
  0.56829761E+00  0.97489777E+00  0.70753459E+00
  0.50546533E+00  0.70914394E+00  0.35693731E+00
  0.81097708E+00  0.77145047E+00  0.72118329E+00
  0.29914895E+00  0.94871280E+00  0.17050626E+00
  0.10055903E+00  0.85865362E+00  0.98649860E+00
  0.61475782E+00  0.38470263E+00  0.11131428E+00
  0.90100307E+00  0.74822304E+00  0.56182747E+00
  0.55970466E+00  0.63123092E+00  0.18434502E+00
  0.64211586E+00  0.96055512E+00  0.87512387E+00
  0.56494048E+00  0.96522676E+00  0.47097286E+00
  0.65777917E+00  0.22431650E+00  0.22510291E+00
  0.51337783E+00  0.86658149E+00  0.60087886E+00
  0.72798322E+00  0.75998253E+00  0.99634745E-01
  0.76844789E+00  0.78087550E+00  0.37475026E+00
  0.73114200E+00  0.92901042E+00  0.53530065E-01
  0.75701048E+00  0.83614152E+00  0.92777976E+00
  0.12148118E+00  0.89071931E+00  0.83219241E+00
  0.52999256E+00  0.43563962E-01  0.86527538E+00
  0.15584129E+00  0.85313515E+00  0.50594494E+00
  0.83076621E+00  0.31217817E-01  0.62718849E-01
  0.70302455E+00  0.91747768E+00  0.25907013E+00
  0.37902369E+00  0.22197080E-01  0.56544622E-01
  0.15130072E+00  0.95487077E+00  0.13124621E+00
  0.66667882E+00  0.51495213E+00  0.21595771E+00
  0.28380295E+00  0.71945128E+00  0.18356095E+00
  0.58226980E+00  0.25421646E+00  0.78089451E-01
  0.39046787E+00  0.77660956E+00  0.59617036E+00
  0.97694249E+00  0.81168748E+00  0.18403701E+00
  0.37123233E+00  0.93307674E+00  0.32775365E+00
  0.19238551E-01  0.81786175E+00  0.85772505E+00
  0.44362503E+00  0.43228816E-02  0.54808387E+00
  0.69434732E+00  0.68404040E+00  0.72819839E+00
  0.70234456E+00  0.65400620E+00  0.94903132E+00
  0.53747500E+00  0.16874987E+00  0.30154201E+00
  0.69277706E+00  0.66169871E+00  0.41279969E+00
  0.40667267E+00  0.64300191E+00  0.96552877E+00
  0.90025356E+00  0.84450260E+00  0.43680651E+00
  0.00000000E+00  0.00000000E+00  0.00000000E+00
  0.00000000E+00  0.00000000E+00  0.00000000E+00
  0.00000000E+00  0.00000000E+00  0.00000000E+00
  0.00000000E+00  0.00000000E+00  0.00000000E+00
  0.00000000E+00  0.00000000E+00  0.00000000E+00
  0.00000000E+00  0.00000000E+00  0.00000000E+00
  0.00000000E+00  0.00000000E+00  0.00000000E+00
  0.00000000E+00  0.00000000E+00  0.00000000E+00
  0.00000000E+00  0.00000000E+00  0.00000000E+00
  0.00000000E+00  0.00000000E+00  0.00000000E+00
  0.00000000E+00  0.00000000E+00  0.00000000E+00
  0.00000000E+00  0.00000000E+00  0.00000000E+00
  0.00000000E+00  0.00000000E+00  0.00000000E+00
  0.00000000E+00  0.00000000E+00  0.00000000E+00
  0.00000000E+00  0.00000000E+00  0.00000000E+00
  0.00000000E+00  0.00000000E+00  0.00000000E+00
  0.00000000E+00  0.00000000E+00  0.00000000E+00
  0.00000000E+00  0.00000000E+00  0.00000000E+00
  0.00000000E+00  0.00000000E+00  0.00000000E+00
  0.00000000E+00  0.00000000E+00  0.00000000E+00
  0.00000000E+00  0.00000000E+00  0.00000000E+00
  0.00000000E+00  0.00000000E+00  0.00000000E+00
  0.00000000E+00  0.00000000E+00  0.00000000E+00
  0.00000000E+00  0.00000000E+00  0.00000000E+00
  0.00000000E+00  0.00000000E+00  0.00000000E+00
  0.00000000E+00  0.00000000E+00  0.00000000E+00
  0.00000000E+00  0.00000000E+00  0.00000000E+00
  0.00000000E+00  0.00000000E+00  0.00000000E+00
  0.00000000E+00  0.00000000E+00  0.00000000E+00
  0.00000000E+00  0.00000000E+00  0.00000000E+00
  0.00000000E+00  0.00000000E+00  0.00000000E+00
  0.00000000E+00  0.00000000E+00  0.00000000E+00
  0.00000000E+00  0.00000000E+00  0.00000000E+00
  0.00000000E+00  0.00000000E+00  0.00000000E+00
  0.00000000E+00  0.00000000E+00  0.00000000E+00
  0.00000000E+00  0.00000000E+00  0.00000000E+00
  0.00000000E+00  0.00000000E+00  0.00000000E+00
  0.00000000E+00  0.00000000E+00  0.00000000E+00
  0.00000000E+00  0.00000000E+00  0.00000000E+00
  0.00000000E+00  0.00000000E+00  0.00000000E+00
  0.00000000E+00  0.00000000E+00  0.00000000E+00
  0.00000000E+00  0.00000000E+00  0.00000000E+00
  0.00000000E+00  0.00000000E+00  0.00000000E+00
  0.00000000E+00  0.00000000E+00  0.00000000E+00
  0.00000000E+00  0.00000000E+00  0.00000000E+00
  0.00000000E+00  0.00000000E+00  0.00000000E+00
  0.00000000E+00  0.00000000E+00  0.00000000E+00
  0.00000000E+00  0.00000000E+00  0.00000000E+00
  0.00000000E+00  0.00000000E+00  0.00000000E+00
  0.00000000E+00  0.00000000E+00  0.00000000E+00
  0.00000000E+00  0.00000000E+00  0.00000000E+00
  0.00000000E+00  0.00000000E+00  0.00000000E+00
  0.00000000E+00  0.00000000E+00  0.00000000E+00
  0.00000000E+00  0.00000000E+00  0.00000000E+00
  0.00000000E+00  0.00000000E+00  0.00000000E+00
  0.00000000E+00  0.00000000E+00  0.00000000E+00
  0.00000000E+00  0.00000000E+00  0.00000000E+00
  0.00000000E+00  0.00000000E+00  0.00000000E+00
  0.00000000E+00  0.00000000E+00  0.00000000E+00
  0.00000000E+00  0.00000000E+00  0.00000000E+00
  0.00000000E+00  0.00000000E+00  0.00000000E+00
  0.00000000E+00  0.00000000E+00  0.00000000E+00
  0.00000000E+00  0.00000000E+00  0.00000000E+00
  0.00000000E+00  0.00000000E+00  0.00000000E+00
  0.00000000E+00  0.00000000E+00  0.00000000E+00
  0.00000000E+00  0.00000000E+00  0.00000000E+00
  0.00000000E+00  0.00000000E+00  0.00000000E+00
  0.00000000E+00  0.00000000E+00  0.00000000E+00
  0.00000000E+00  0.00000000E+00  0.00000000E+00
  0.00000000E+00  0.00000000E+00  0.00000000E+00
  0.00000000E+00  0.00000000E+00  0.00000000E+00
  0.00000000E+00  0.00000000E+00  0.00000000E+00
  0.00000000E+00  0.00000000E+00  0.00000000E+00
  0.00000000E+00  0.00000000E+00  0.00000000E+00
  0.00000000E+00  0.00000000E+00  0.00000000E+00
  0.00000000E+00  0.00000000E+00  0.00000000E+00
  0.00000000E+00  0.00000000E+00  0.00000000E+00
  0.00000000E+00  0.00000000E+00  0.00000000E+00
  0.00000000E+00  0.00000000E+00  0.00000000E+00
  0.00000000E+00  0.00000000E+00  0.00000000E+00
  0.00000000E+00  0.00000000E+00  0.00000000E+00
  0.00000000E+00  0.00000000E+00  0.00000000E+00
  0.00000000E+00  0.00000000E+00  0.00000000E+00
  0.00000000E+00  0.00000000E+00  0.00000000E+00
  0.00000000E+00  0.00000000E+00  0.00000000E+00
  0.00000000E+00  0.00000000E+00  0.00000000E+00
  0.00000000E+00  0.00000000E+00  0.00000000E+00
  0.00000000E+00  0.00000000E+00  0.00000000E+00
  0.00000000E+00  0.00000000E+00  0.00000000E+00
  0.00000000E+00  0.00000000E+00  0.00000000E+00
  0.00000000E+00  0.00000000E+00  0.00000000E+00
  0.00000000E+00  0.00000000E+00  0.00000000E+00
  0.00000000E+00  0.00000000E+00  0.00000000E+00
  0.00000000E+00  0.00000000E+00  0.00000000E+00
  0.00000000E+00  0.00000000E+00  0.00000000E+00
  0.00000000E+00  0.00000000E+00  0.00000000E+00
  0.00000000E+00  0.00000000E+00  0.00000000E+00
  0.00000000E+00  0.00000000E+00  0.00000000E+00
  0.00000000E+00  0.00000000E+00  0.00000000E+00
  0.00000000E+00  0.00000000E+00  0.00000000E+00
  0.00000000E+00  0.00000000E+00  0.00000000E+00
  0.00000000E+00  0.00000000E+00  0.00000000E+00
  0.00000000E+00  0.00000000E+00  0.00000000E+00
  0.00000000E+00  0.00000000E+00  0.00000000E+00
  0.00000000E+00  0.00000000E+00  0.00000000E+00
  0.00000000E+00  0.00000000E+00  0.00000000E+00
  0.00000000E+00  0.00000000E+00  0.00000000E+00
  0.00000000E+00  0.00000000E+00  0.00000000E+00
  0.00000000E+00  0.00000000E+00  0.00000000E+00
  0.00000000E+00  0.00000000E+00  0.00000000E+00
  0.00000000E+00  0.00000000E+00  0.00000000E+00
  0.00000000E+00  0.00000000E+00  0.00000000E+00
  0.00000000E+00  0.00000000E+00  0.00000000E+00
  0.00000000E+00  0.00000000E+00  0.00000000E+00
  0.00000000E+00  0.00000000E+00  0.00000000E+00
  0.00000000E+00  0.00000000E+00  0.00000000E+00
  0.00000000E+00  0.00000000E+00  0.00000000E+00
  0.00000000E+00  0.00000000E+00  0.00000000E+00
  0.00000000E+00  0.00000000E+00  0.00000000E+00
  0.00000000E+00  0.00000000E+00  0.00000000E+00
  0.00000000E+00  0.00000000E+00  0.00000000E+00
  0.00000000E+00  0.00000000E+00  0.00000000E+00
  0.00000000E+00  0.00000000E+00  0.00000000E+00
  0.00000000E+00  0.00000000E+00  0.00000000E+00
  0.00000000E+00  0.00000000E+00  0.00000000E+00
  0.00000000E+00  0.00000000E+00  0.00000000E+00
  0.00000000E+00  0.00000000E+00  0.00000000E+00
  0.00000000E+00  0.00000000E+00  0.00000000E+00
  0.00000000E+00  0.00000000E+00  0.00000000E+00
  0.00000000E+00  0.00000000E+00  0.00000000E+00
  0.00000000E+00  0.00000000E+00  0.00000000E+00
  0.00000000E+00  0.00000000E+00  0.00000000E+00
  0.00000000E+00  0.00000000E+00  0.00000000E+00
  0.00000000E+00  0.00000000E+00  0.00000000E+00
  0.00000000E+00  0.00000000E+00  0.00000000E+00
  0.00000000E+00  0.00000000E+00  0.00000000E+00
  0.00000000E+00  0.00000000E+00  0.00000000E+00
  0.00000000E+00  0.00000000E+00  0.00000000E+00
  0.00000000E+00  0.00000000E+00  0.00000000E+00
  0.00000000E+00  0.00000000E+00  0.00000000E+00
  0.00000000E+00  0.00000000E+00  0.00000000E+00
  0.00000000E+00  0.00000000E+00  0.00000000E+00
  0.00000000E+00  0.00000000E+00  0.00000000E+00
  0.00000000E+00  0.00000000E+00  0.00000000E+00
  0.00000000E+00  0.00000000E+00  0.00000000E+00
  0.00000000E+00  0.00000000E+00  0.00000000E+00
  0.00000000E+00  0.00000000E+00  0.00000000E+00
  0.00000000E+00  0.00000000E+00  0.00000000E+00
  0.00000000E+00  0.00000000E+00  0.00000000E+00
  0.00000000E+00  0.00000000E+00  0.00000000E+00
  0.00000000E+00  0.00000000E+00  0.00000000E+00
  0.00000000E+00  0.00000000E+00  0.00000000E+00
  0.00000000E+00  0.00000000E+00  0.00000000E+00
  0.00000000E+00  0.00000000E+00  0.00000000E+00
  0.00000000E+00  0.00000000E+00  0.00000000E+00
  0.00000000E+00  0.00000000E+00  0.00000000E+00
  0.00000000E+00  0.00000000E+00  0.00000000E+00
  0.00000000E+00  0.00000000E+00  0.00000000E+00
  0.00000000E+00  0.00000000E+00  0.00000000E+00
  0.00000000E+00  0.00000000E+00  0.00000000E+00
  0.00000000E+00  0.00000000E+00  0.00000000E+00
  0.00000000E+00  0.00000000E+00  0.00000000E+00
  0.00000000E+00  0.00000000E+00  0.00000000E+00
  0.00000000E+00  0.00000000E+00  0.00000000E+00
  0.00000000E+00  0.00000000E+00  0.00000000E+00
  0.00000000E+00  0.00000000E+00  0.00000000E+00
  0.00000000E+00  0.00000000E+00  0.00000000E+00
  0.00000000E+00  0.00000000E+00  0.00000000E+00
  0.00000000E+00  0.00000000E+00  0.00000000E+00
  0.00000000E+00  0.00000000E+00  0.00000000E+00
  0.00000000E+00  0.00000000E+00  0.00000000E+00
  0.00000000E+00  0.00000000E+00  0.00000000E+00
  0.00000000E+00  0.00000000E+00  0.00000000E+00
  0.00000000E+00  0.00000000E+00  0.00000000E+00
  0.00000000E+00  0.00000000E+00  0.00000000E+00
  0.00000000E+00  0.00000000E+00  0.00000000E+00
  0.00000000E+00  0.00000000E+00  0.00000000E+00
  0.00000000E+00  0.00000000E+00  0.00000000E+00
  0.00000000E+00  0.00000000E+00  0.00000000E+00
  0.00000000E+00  0.00000000E+00  0.00000000E+00
  0.00000000E+00  0.00000000E+00  0.00000000E+00
  0.00000000E+00  0.00000000E+00  0.00000000E+00
  0.00000000E+00  0.00000000E+00  0.00000000E+00
  0.00000000E+00  0.00000000E+00  0.00000000E+00
  0.00000000E+00  0.00000000E+00  0.00000000E+00
  0.00000000E+00  0.00000000E+00  0.00000000E+00
  0.00000000E+00  0.00000000E+00  0.00000000E+00
  0.00000000E+00  0.00000000E+00  0.00000000E+00
  0.00000000E+00  0.00000000E+00  0.00000000E+00
  0.00000000E+00  0.00000000E+00  0.00000000E+00
  0.00000000E+00  0.00000000E+00  0.00000000E+00
  0.00000000E+00  0.00000000E+00  0.00000000E+00
  0.00000000E+00  0.00000000E+00  0.00000000E+00
  0.00000000E+00  0.00000000E+00  0.00000000E+00
  0.00000000E+00  0.00000000E+00  0.00000000E+00
  0.00000000E+00  0.00000000E+00  0.00000000E+00
  0.00000000E+00  0.00000000E+00  0.00000000E+00
  0.00000000E+00  0.00000000E+00  0.00000000E+00
  0.00000000E+00  0.00000000E+00  0.00000000E+00
  0.00000000E+00  0.00000000E+00  0.00000000E+00
