Ni8 P2
1.0
10.399528 0.000000 0.000000
0.000000 10.399528 0.000000
0.000000 0.000000 10.399528
Ni P
8 2
direct
0.401874 0.964481 0.543063 Ni
0.419496 0.529757 0.286962 Ni
0.392866 0.870518 0.686594 Ni
0.043628 0.201658 0.013522 Ni
0.807506 0.489099 0.629912 Ni
0.380693 0.720096 0.198416 Ni
0.076655 0.842414 0.902321 Ni
0.640444 0.398806 0.600789 Ni
0.353086 0.183056 0.294644 P
0.602618 0.386161 0.053378 P
