Ca55 Mg18 Zn27
1.0
12.323323 0.000000 0.000000
0.000000 12.323323 0.000000
0.000000 0.000000 12.323323
Ca Mg Zn
55 18 27
direct
0.222222 0.222222 0.666667 Ca
0.222222 0.333333 1.000000 Ca
0.555554 0.444444 0.333333 Ca
0.555554 0.222222 0.333333 Ca
0.777774 0.333333 0.666667 Ca
0.555554 0.111111 0.666667 Ca
0.777774 0.555554 0.666667 Ca
0.777774 0.888887 0.333333 Ca
0.444444 0.333333 1.000000 Ca
0.111111 0.555554 0.666667 Ca
1.000000 0.111111 0.666667 Ca
0.888887 0.444444 0.666667 Ca
0.444444 0.777774 0.333333 Ca
0.888887 1.000000 0.333333 Ca
0.666667 0.444444 0.666667 Ca
0.888887 0.555554 1.000000 Ca
0.666667 0.111111 1.000000 Ca
0.333333 0.888887 0.333333 Ca
0.222222 0.555554 0.333333 Ca
1.000000 0.888887 0.333333 Ca
0.222222 0.555554 1.000000 Ca
0.777774 0.222222 0.333333 Ca
0.888887 0.333333 0.333333 Ca
0.444444 0.666667 0.666667 Ca
0.666667 0.555554 1.000000 Ca
0.555554 0.666667 1.000000 Ca
0.888887 0.222222 0.666667 Ca
0.888887 0.111111 1.000000 Ca
0.666667 0.111111 0.333333 Ca
0.333333 0.222222 0.333333 Ca
1.000000 0.444444 0.333333 Ca
0.444444 0.444444 0.666667 Ca
0.666667 0.777774 0.333333 Ca
0.111111 0.444444 0.333333 Ca
0.333333 0.666667 0.333333 Ca
0.111111 0.666667 0.333333 Ca
0.666667 0.333333 1.000000 Ca
1.000000 0.222222 1.000000 Ca
1.000000 0.333333 0.666667 Ca
0.888887 0.111111 0.333333 Ca
0.111111 0.888887 0.333333 Ca
0.333333 0.777774 0.666667 Ca
0.444444 0.555554 1.000000 Ca
0.666667 0.777774 1.000000 Ca
0.444444 0.777774 1.000000 Ca
0.333333 0.444444 0.333333 Ca
0.111111 0.222222 0.333333 Ca
0.666667 0.555554 0.333333 Ca
1.000000 0.666667 0.333333 Ca
0.555554 0.222222 1.000000 Ca
0.555554 0.777774 0.666667 Ca
0.222222 0.111111 1.000000 Ca
1.000000 0.444444 1.000000 Ca
0.111111 0.333333 0.666667 Ca
0.333333 0.666667 1.000000 Ca
0.222222 0.666667 0.666667 Mg
0.666667 0.222222 0.666667 Mg
0.111111 0.666667 1.000000 Mg
0.777774 0.222222 1.000000 Mg
0.444444 0.111111 1.000000 Mg
0.333333 0.111111 0.666667 Mg
0.555554 0.444444 1.000000 Mg
0.666667 0.666667 0.666667 Mg
0.555554 0.555554 0.666667 Mg
0.666667 0.333333 0.333333 Mg
0.333333 0.333333 0.666667 Mg
0.333333 0.222222 1.000000 Mg
0.222222 0.444444 0.666667 Mg
0.777774 0.444444 0.333333 Mg
0.333333 0.555554 0.666667 Mg
0.444444 0.333333 0.333333 Mg
0.444444 0.111111 0.333333 Mg
0.555554 0.333333 0.666667 Mg
1.000000 0.555554 0.666667 Zn
0.444444 0.222222 0.666667 Zn
0.777774 0.444444 1.000000 Zn
0.555554 0.888887 0.333333 Zn
1.000000 0.222222 0.333333 Zn
0.111111 0.444444 1.000000 Zn
0.111111 0.222222 1.000000 Zn
0.888887 0.333333 1.000000 Zn
0.888887 0.666667 0.666667 Zn
0.888887 0.555554 0.333333 Zn
0.111111 0.777774 0.666667 Zn
0.777774 0.666667 1.000000 Zn
0.666667 1.000000 0.333333 Zn
0.444444 0.555554 0.333333 Zn
0.444444 1.000000 0.333333 Zn
0.222222 0.777774 0.333333 Zn
0.777774 0.666667 0.333333 Zn
0.222222 1.000000 0.333333 Zn
0.333333 0.444444 1.000000 Zn
0.222222 0.777774 1.000000 Zn
0.777774 0.111111 0.666667 Zn
0.555554 0.666667 0.333333 Zn
0.222222 0.333333 0.333333 Zn
0.222222 0.111111 0.333333 Zn
0.111111 0.111111 0.666667 Zn
0.888887 0.777774 0.333333 Zn
0.777774 0.777774 0.666667 Zn
