Si100                                   
   1.00000000000000     
    10.2114949999999993    0.0000000000000000    0.0000000000000000
     0.0000000000000000   10.2114949999999993    0.0000000000000000
     0.0000000000000000    0.0000000000000000   10.2114949999999993
   Si
   100
Direct
  0.8244211414416700  0.7709769972050083  0.0928121995302857
  0.8186357542705487  0.8988187743724445 -0.0969252514566608
  0.6942214064941719  0.1388881229874705  0.4255621702435893
  0.7914975758746574  0.2221808555755518  0.8560906957931895
  0.3032116801385997 -0.0110132218883310  0.4042895521875496
  0.6136680957667660  0.7999473105346870  0.8473641540577714
  0.4953412961971600  0.5794585649497690  0.4370226381153470
  0.5038932472780639  0.5484266755445195  0.2178582480247275
  0.5520896043482705 -0.0379783361475197  0.2803345535831138
  0.0130815247191943 -0.0010242502641317 -0.1222633253691171
  0.1845430542931027  0.1886124276161142  0.4407793111676159
  0.8082114295902882  0.4177635267000158  0.4156877890967948
 -0.0288369265427634  0.2182933143887163  0.7755076036296592
  0.7708101731701239  0.3174715605909367  0.6319583338142216
 -0.1100727677131337  0.1804829041300748  0.5241685223199437
  0.0834204082122728 -0.0057403937111434  0.4306349974189916
  0.0503309059535985  0.0841366676839934  0.6270360759945335
  0.1849032342404958  0.2616343092618428 -0.0205916346780247
  0.4397526829769887  0.1969831181592392  0.3637979504116559
  0.6030146941184468  0.7297313062140696  0.3006116287643979
  0.5720294215970786  0.6905577743294261  0.0455051024624516
  0.0039022352153450  0.3862255556494195  0.6169895288401757
  0.6181634823160809  0.2480408374761986 -0.0020822118601280
  0.3251003015558019  0.6617822820765770  0.3172930833268647
  0.8941536422156434  0.0778490622172614  0.3168111313636077
  0.0187850754078172  0.3777178117887078  0.1255427089383224
  0.1778520952354359  0.0490306980623507  0.0236077437772366
  0.0448347644593110  0.3553698406787120  0.3825792707524767
  0.2933467295275257  0.4400428060730857  0.0712715421027263
  0.6362043447338285  0.0756468703199647  0.8464209021067985
  0.6696203870194438 -0.1008306788261473  0.4571744059061576
  0.1817664976588248  0.1308196720669786  0.8144514532165921
  0.2295854959887115  0.8160631282046615  0.0499591871262334
  0.0944325755924089  0.5828118704879822  0.4285881322759217
  0.2327868538483543  0.2961488071486644  0.2462757125085880
  0.0194300198834114  0.7980206981021176 -0.0203433143654989
  0.4098157878583200  0.8127027666568966  0.1956899844387176
  0.7380458133388328  0.5810425989736570  0.2209380009672535
  0.1003175907370466  0.1311651766416275  0.2356874487618866
  0.4884049166660868  0.0512921731120069  0.0701496808760041
  0.7817372849720479  0.6510606512476541 -0.0958714297102627
  0.4160452888121349  0.4968694133818835  0.6455756361773838
 -0.0306868862184027 -0.0452996555361935  0.1449379560016921
 -0.1085593705958356  0.5883763526001091  0.5693866506442418
  0.4572195850792056  0.2852208641029478  0.5679707594961450
  0.2026081579171023  0.4904432968732729  0.6001740682125991
  0.8633169762083380  0.2574583404987617  0.2220903024123066
  0.6374941117458750  0.1413141829257986  0.6269241312741241
  0.4156499097358679  0.0730232893141475  0.8140957168734275
  0.7950504961261264  0.0750181611373050  0.0644125808261570
  0.3652184878422961  0.2992326794790022  0.7869699049988667
  0.1431029588354822  0.5014652239383806  0.2436192246393466
  0.2511837363291516 -0.0682203737586629  0.8265792121828497
 -0.0356269543001040  0.6158015113269880  0.8168241579622573
  0.4785748119638671  0.3227125433352777  0.1786116538818178
  0.0260839998214954  0.8385680609810678  0.7383802555961001
  0.0995964852097237  0.6441628483155662  0.6360202347157905
  0.7456685466544420  0.7033043316753270  0.4821740505214915
  0.1120993964185419  0.6134511972942636  0.0140048318396920
  0.6217082902625984 -0.0583952079095312  0.6718161404135432
  0.6113124881193519 -0.1007901653335075  0.0567130685190759
  0.3173105379981089  0.0920796113906681  0.6221981074609922
  0.6518944282811002  0.5005597348039659  0.5814541103370042
  0.1107519688831773  0.7317742027332488  0.2332103850544799
  0.4515295361410096  0.4635294300089210  0.9218786196114990
  0.1867159930857082 -0.0741948542433178  0.2343508121879561
 -0.0698258301962731  0.5802671669405859  0.2844750966081639
  0.1713225269098569  0.2689888727713701  0.6510706131932625
  0.8056287936478539  0.4499678104115514  0.8003779768096571
  0.7978647197024101  0.7692493012924350  0.7293087240061673
  0.5810743888905159  0.3052015103481597  0.7803551973839927
  0.2476194118274369  0.4683156239576723  0.8268498696808446
  0.1953735156995114  0.7037740860251857  0.8136160046661142
  0.5830419771282076  0.7155961326063093  0.6163453400325114
  0.6410159295439551  0.4876508725584797  0.0230884907018050
  0.4307565410695136  0.7983562995910299  0.4303753769537069
  0.4178288263248906  0.8422693044036124 -0.0541794099412203
  0.3116375339355037  0.4461646928409210  0.4226028406461838
 -0.0911984823994381  0.5481875606822563  0.0605605903725430
  0.6245241889167253  0.5573896545772100  0.7900944728577340
  0.5970398003905576  0.3623428465230211  0.4205741772504884
  0.1960195638203595  0.7934106153385980  0.4313277231946852
  0.8237496359863224  0.0174530163783117  0.7178990107969480
  0.3201836394014025  0.7075798603501032  0.6009114441308122
  0.3825274239011235  0.2304938111535200 -0.0111897308942522
  0.6359438173695849  0.1633290718550412  0.1977144774402432
  0.3408881974347294  0.6430740606346840  0.0414478582330187
  0.8745348972637639 -0.0378953198639606  0.4995723691848278
  0.4044190867715293  0.6472294373378422  0.8125418699036470
  0.7724860783577040 -0.0801511873003138  0.2377200028011875
  0.5045115639730717  0.0206492541955274  0.4906923163017700
  0.6827678293815697  0.3802438025481346  0.2252917698309859
  0.4253155671193659  0.8610645588800953  0.6982570471018068
  0.8232393791558539  0.3588601275737600  0.0087027007322654
 -0.0866527538271715  0.7869831703273394  0.3084555631588139
 -0.0175268184113256  0.1780513900951584  0.0340531551541061
  0.0405399783743013  0.4088585682452391 -0.0880124235369419
 -0.0087149713522434  0.8027007511151744  0.5180556838637445
  0.1953132902837799  0.9134281234672006  0.6117175494460655
  0.3350342425928340  0.1028394964119357  0.1905794036317602
 
  0.80531861E-02 -0.42871648E-02 -0.96379099E-03
  0.89784060E-02 -0.42876911E-02  0.66200176E-02
 -0.25388044E-02  0.72688505E-02  0.61104868E-02
 -0.82018653E-02 -0.15038941E-01  0.92505362E-02
 -0.12591536E-01  0.88778805E-02  0.15356448E-02
  0.60041657E-02  0.89627455E-03  0.59599385E-02
  0.14609273E-01 -0.13148817E-02 -0.58294520E-03
 -0.59166856E-02 -0.58670288E-03 -0.91582182E-02
 -0.33694660E-04  0.44463293E-02 -0.79380082E-02
  0.17071633E-02 -0.11904749E-01 -0.29598678E-02
 -0.38577943E-02  0.14122058E-01 -0.75912974E-02
 -0.40113665E-02 -0.17109794E-02  0.32859969E-02
  0.10402535E-01 -0.92965708E-02 -0.33588803E-02
 -0.50526227E-02 -0.12478498E-01  0.12178315E-01
 -0.54736398E-02 -0.52830545E-02 -0.10453543E-01
 -0.10819787E-01 -0.35880575E-02  0.16865217E-02
 -0.52731521E-02  0.88787198E-02  0.42870872E-02
 -0.49589725E-02  0.17768661E-01  0.54923363E-02
 -0.27973061E-02  0.41242202E-02  0.25982838E-02
 -0.11777527E-01 -0.21834620E-02 -0.38594431E-02
 -0.56274002E-02  0.11058092E-01  0.53058360E-02
  0.64331320E-02 -0.24978364E-01 -0.63123551E-02
 -0.55849299E-02 -0.48730770E-02 -0.51587954E-02
 -0.80388294E-02  0.26801773E-02  0.17540576E-01
  0.10733557E-01  0.25173355E-02 -0.11983900E-01
 -0.34136352E-03  0.69290436E-02 -0.15383963E-01
  0.14313595E-01  0.55138539E-02 -0.21887143E-02
 -0.82873647E-02 -0.11226850E-02 -0.15973076E-01
  0.31533405E-02  0.38596001E-03  0.74207215E-02
  0.39492027E-03  0.46892583E-02  0.67085550E-02
  0.53853426E-02  0.20365052E-01  0.74235005E-03
  0.44904807E-02  0.18881619E-01  0.89063731E-03
 -0.76829095E-02  0.39479037E-03  0.84460986E-02
 -0.46238142E-02 -0.16635824E-01  0.14008447E-01
  0.92197278E-02  0.99110940E-02 -0.11612277E-02
  0.65997704E-02  0.26583199E-02 -0.31454809E-03
 -0.59798490E-02  0.37462049E-02 -0.50751823E-02
 -0.99832096E-02 -0.97818315E-02 -0.18855232E-01
 -0.19128618E-02  0.19454253E-02 -0.18349783E-01
  0.24872155E-02  0.69139590E-02  0.10080770E-01
 -0.80323365E-02  0.50467532E-02  0.53148091E-02
 -0.22434053E-03  0.50951176E-02 -0.19699512E-02
  0.10157265E-01 -0.13739641E-01  0.12043654E-01
  0.95277944E-03 -0.30688802E-03  0.35517825E-02
 -0.42052032E-02  0.38537293E-02  0.40642769E-03
  0.44233026E-02 -0.76005775E-02  0.77233598E-02
 -0.83094167E-03  0.74863519E-03  0.84030193E-02
 -0.12921340E-01 -0.17668695E-02  0.70155090E-02
  0.32218831E-02 -0.14026572E-01 -0.43818027E-02
 -0.88293196E-02 -0.32288536E-02 -0.11976899E-01
  0.18556338E-01  0.10791467E-01  0.64190136E-03
  0.19144430E-02 -0.12078935E-01  0.52356838E-02
 -0.74448653E-03  0.38212264E-02  0.16009039E-02
  0.61911182E-02  0.93038111E-02 -0.20290416E-02
 -0.27597596E-02 -0.43918722E-02 -0.67454908E-03
 -0.13059509E-01 -0.49221639E-02 -0.20221378E-02
  0.68420167E-03 -0.88020937E-03  0.38364698E-02
 -0.98409113E-02 -0.15912526E-01 -0.90697929E-02
  0.96984854E-02  0.33505303E-03  0.22316471E-02
  0.89023439E-02  0.40207751E-02  0.62737910E-02
  0.16761975E-01 -0.22634876E-02 -0.15995175E-01
  0.13547619E-01  0.27553963E-02 -0.11047265E-02
  0.15419652E-02  0.33166468E-02 -0.64668237E-02
 -0.26977711E-02 -0.44278315E-02 -0.56358866E-02
 -0.24558693E-02  0.34272730E-02  0.51511681E-02
 -0.78192404E-02  0.15715854E-02 -0.57377610E-02
  0.11833987E-01  0.38267009E-02  0.81020538E-02
  0.10846340E-01  0.61249032E-02 -0.60164802E-02
  0.49998747E-02  0.23732247E-02  0.82784207E-02
  0.18849614E-02 -0.51785490E-02 -0.52111079E-02
  0.41200049E-02  0.93782555E-02 -0.28008070E-02
  0.56157626E-02 -0.15172269E-01 -0.50436043E-02
  0.12691992E-01  0.32158033E-02 -0.44626889E-02
 -0.16916351E-03  0.40041980E-02  0.21572648E-02
  0.54743335E-02 -0.58330032E-02 -0.54118861E-02
  0.59131948E-02  0.84016641E-02  0.10238507E-02
 -0.90419835E-03  0.72998768E-02  0.96561760E-02
 -0.38372653E-02 -0.39231860E-02 -0.65893955E-02
 -0.21005970E-01  0.14547473E-01  0.27498215E-02
  0.85228009E-02 -0.42552714E-02  0.58956085E-03
  0.23639905E-02 -0.37199548E-03 -0.37425090E-02
  0.55823102E-03 -0.33278282E-02  0.12215525E-02
  0.18053076E-02 -0.37663542E-04 -0.92586744E-02
  0.12788478E-01 -0.22965134E-02  0.26283030E-02
 -0.66496719E-03 -0.22075890E-01  0.45468894E-02
  0.10978115E-01 -0.37808924E-02  0.50853866E-02
  0.45775789E-02  0.40927430E-02  0.49518481E-02
 -0.52565283E-02  0.31318885E-02 -0.21441454E-02
  0.74664564E-03  0.64044978E-02  0.36417357E-02
 -0.61310704E-02  0.12644671E-01  0.58728407E-02
 -0.16770136E-01 -0.26932446E-02  0.43109691E-02
 -0.18062521E-01  0.11378407E-02 -0.13019147E-02
  0.31967746E-02  0.31926007E-02 -0.82049931E-03
 -0.31116485E-02 -0.33801517E-02  0.82745159E-02
 -0.19343203E-01 -0.10818473E-01 -0.12000192E-01
  0.82241121E-02  0.29649540E-02  0.20907323E-02
 -0.51040533E-02 -0.75587946E-02  0.42188083E-02
 -0.62507090E-02 -0.18442965E-02  0.21125997E-02
 -0.54773074E-02  0.59205531E-03 -0.15065307E-01
  0.12150415E-02 -0.49470169E-02  0.13463916E-01
 
           1
   3.00000000000000     
  0.24389178E+01 -0.11833844E-01 -0.14773051E-01  0.24522213E+01
  0.82678706E+00  0.76971749E+00  0.92529051E-01
  0.82127349E+00  0.89755911E+00  0.90501962E+00
  0.69347554E+00  0.14102361E+00  0.42735735E+00
  0.78908798E+00  0.21776262E+00  0.85880838E+00
  0.29951246E+00  0.99159498E+00  0.40474070E+00
  0.61543204E+00  0.80021062E+00  0.84911510E+00
  0.49963330E+00  0.57907227E+00  0.43685138E+00
  0.50215500E+00  0.54825431E+00  0.21516769E+00
  0.55207971E+00  0.96332794E+00  0.27800247E+00
  0.13583066E-01  0.99547829E+00  0.87686711E+00
  0.18340969E+00  0.19276130E+00  0.43854909E+00
  0.80703294E+00  0.41726086E+00  0.41665317E+00
  0.97421920E+00  0.21556211E+00  0.77452081E+00
  0.76932578E+00  0.31380555E+00  0.63553616E+00
  0.88831915E+00  0.17893081E+00  0.52109741E+00
  0.80241700E-01  0.99320548E+00  0.43113047E+00
  0.48781725E-01  0.86745116E-01  0.62829556E+00
  0.18344635E+00  0.26685450E+00  0.98102194E+00
  0.43893087E+00  0.19819476E+00  0.36456129E+00
  0.59955461E+00  0.72908983E+00  0.29947778E+00
  0.57037617E+00  0.69380649E+00  0.47063886E-01
  0.57922029E-02  0.37888725E+00  0.61513504E+00
  0.61652270E+00  0.24660919E+00  0.99640220E+00
  0.32273860E+00  0.66256968E+00  0.32244627E+00
  0.89730702E+00  0.78588622E-01  0.31329042E+00
  0.18684787E-01  0.37975347E+00  0.12102311E+00
  0.18205724E+00  0.50650594E-01  0.22964729E-01
  0.42400048E-01  0.35504001E+00  0.37788660E+00
  0.29427314E+00  0.44015620E+00  0.73451650E-01
  0.63632037E+00  0.77024511E-01  0.84839179E+00
  0.67120253E+00  0.90515230E+00  0.45739250E+00
  0.18308574E+00  0.13636684E+00  0.81471311E+00
  0.22732836E+00  0.81617911E+00  0.52440537E-01
  0.93074161E-01  0.57792449E+00  0.43270363E+00
  0.23549549E+00  0.29906055E+00  0.24593456E+00
  0.21368944E-01  0.79880168E+00  0.97956428E+00
  0.40805899E+00  0.81380335E+00  0.19419896E+00
  0.73511288E+00  0.57816883E+00  0.21539859E+00
  0.99755618E-01  0.13173672E+00  0.23029653E+00
  0.48913563E+00  0.53323401E-01  0.73111276E-01
  0.77937749E+00  0.65254332E+00  0.90568999E+00
  0.41597938E+00  0.49836629E+00  0.64499689E+00
  0.97229718E+00  0.95066382E+00  0.14847622E+00
  0.89172054E+00  0.58828619E+00  0.57043012E+00
  0.45598415E+00  0.28635304E+00  0.56809016E+00
  0.20390766E+00  0.48821035E+00  0.60244309E+00
  0.86307286E+00  0.25767828E+00  0.22455900E+00
  0.63369800E+00  0.14079510E+00  0.62898519E+00
  0.41659646E+00  0.68902471E-01  0.81280840E+00
  0.79245656E+00  0.74069567E-01  0.60893929E-01
  0.37067009E+00  0.30240307E+00  0.78715849E+00
  0.14366540E+00  0.49791660E+00  0.24515740E+00
  0.25096502E+00  0.93290225E+00  0.82704954E+00
  0.96619191E+00  0.61853485E+00  0.81622805E+00
  0.47776403E+00  0.32142227E+00  0.17841348E+00
  0.22247292E-01  0.83712200E+00  0.73778618E+00
  0.99797494E-01  0.64390425E+00  0.63714734E+00
  0.74277742E+00  0.69862945E+00  0.47950947E+00
  0.11494868E+00  0.61354963E+00  0.14660460E-01
  0.62432368E+00  0.94278604E+00  0.67365930E+00
  0.61623693E+00  0.89854485E+00  0.52013901E-01
  0.32129065E+00  0.92889110E-01  0.62187355E+00
  0.65234744E+00  0.50153412E+00  0.57955424E+00
  0.10995940E+00  0.73047337E+00  0.23155464E+00
  0.45080803E+00  0.46453632E+00  0.92339196E+00
  0.18441881E+00  0.92626686E+00  0.23266514E+00
  0.93365084E+00  0.58139140E+00  0.28685537E+00
  0.17450904E+00  0.27078829E+00  0.64930305E+00
  0.80709769E+00  0.45066503E+00  0.80281007E+00
  0.79841850E+00  0.76772791E+00  0.72777777E+00
  0.58228479E+00  0.30795672E+00  0.77953236E+00
  0.24926925E+00  0.46385822E+00  0.82536813E+00
  0.19910225E+00  0.70471885E+00  0.81230493E+00
  0.58299228E+00  0.71677251E+00  0.61697912E+00
  0.64262422E+00  0.48593721E+00  0.21498551E-01
  0.43249376E+00  0.80082460E+00  0.43067617E+00
  0.41756319E+00  0.84441391E+00  0.94865744E+00
  0.31051020E+00  0.44501211E+00  0.42066696E+00
  0.90263025E+00  0.55246141E+00  0.61368451E-01
  0.62702807E+00  0.55613951E+00  0.79026768E+00
  0.59773431E+00  0.36223356E+00  0.41947468E+00
  0.19618356E+00  0.79243294E+00  0.43168660E+00
  0.82428001E+00  0.17441951E-01  0.71517894E+00
  0.32394072E+00  0.70690518E+00  0.60168360E+00
  0.38233207E+00  0.22400821E+00  0.99014608E+00
  0.63916904E+00  0.16221830E+00  0.19920850E+00
  0.34223303E+00  0.64427645E+00  0.42902645E-01
  0.87299060E+00  0.96302479E+00  0.49894245E+00
  0.40463844E+00  0.64911099E+00  0.81361176E+00
  0.77068485E+00  0.92356365E+00  0.23944536E+00
  0.49958472E+00  0.19858015E-01  0.49195882E+00
  0.67746130E+00  0.38057808E+00  0.22490928E+00
  0.42625474E+00  0.86200250E+00  0.69801600E+00
  0.82232522E+00  0.35786708E+00  0.11133642E-01
  0.90766447E+00  0.78380485E+00  0.30493007E+00
  0.98488932E+00  0.17892245E+00  0.34667384E-01
  0.39040476E-01  0.40663790E+00  0.91322701E+00
  0.98944865E+00  0.80215892E+00  0.51867634E+00
  0.19370413E+00  0.91360206E+00  0.60729156E+00
  0.33539121E+00  0.10138613E+00  0.19453492E+00
  0.00000000E+00  0.00000000E+00  0.00000000E+00
  0.00000000E+00  0.00000000E+00  0.00000000E+00
  0.00000000E+00  0.00000000E+00  0.00000000E+00
  0.00000000E+00  0.00000000E+00  0.00000000E+00
  0.00000000E+00  0.00000000E+00  0.00000000E+00
  0.00000000E+00  0.00000000E+00  0.00000000E+00
  0.00000000E+00  0.00000000E+00  0.00000000E+00
  0.00000000E+00  0.00000000E+00  0.00000000E+00
  0.00000000E+00  0.00000000E+00  0.00000000E+00
  0.00000000E+00  0.00000000E+00  0.00000000E+00
  0.00000000E+00  0.00000000E+00  0.00000000E+00
  0.00000000E+00  0.00000000E+00  0.00000000E+00
  0.00000000E+00  0.00000000E+00  0.00000000E+00
  0.00000000E+00  0.00000000E+00  0.00000000E+00
  0.00000000E+00  0.00000000E+00  0.00000000E+00
  0.00000000E+00  0.00000000E+00  0.00000000E+00
  0.00000000E+00  0.00000000E+00  0.00000000E+00
  0.00000000E+00  0.00000000E+00  0.00000000E+00
  0.00000000E+00  0.00000000E+00  0.00000000E+00
  0.00000000E+00  0.00000000E+00  0.00000000E+00
  0.00000000E+00  0.00000000E+00  0.00000000E+00
  0.00000000E+00  0.00000000E+00  0.00000000E+00
  0.00000000E+00  0.00000000E+00  0.00000000E+00
  0.00000000E+00  0.00000000E+00  0.00000000E+00
  0.00000000E+00  0.00000000E+00  0.00000000E+00
  0.00000000E+00  0.00000000E+00  0.00000000E+00
  0.00000000E+00  0.00000000E+00  0.00000000E+00
  0.00000000E+00  0.00000000E+00  0.00000000E+00
  0.00000000E+00  0.00000000E+00  0.00000000E+00
  0.00000000E+00  0.00000000E+00  0.00000000E+00
  0.00000000E+00  0.00000000E+00  0.00000000E+00
  0.00000000E+00  0.00000000E+00  0.00000000E+00
  0.00000000E+00  0.00000000E+00  0.00000000E+00
  0.00000000E+00  0.00000000E+00  0.00000000E+00
  0.00000000E+00  0.00000000E+00  0.00000000E+00
  0.00000000E+00  0.00000000E+00  0.00000000E+00
  0.00000000E+00  0.00000000E+00  0.00000000E+00
  0.00000000E+00  0.00000000E+00  0.00000000E+00
  0.00000000E+00  0.00000000E+00  0.00000000E+00
  0.00000000E+00  0.00000000E+00  0.00000000E+00
  0.00000000E+00  0.00000000E+00  0.00000000E+00
  0.00000000E+00  0.00000000E+00  0.00000000E+00
  0.00000000E+00  0.00000000E+00  0.00000000E+00
  0.00000000E+00  0.00000000E+00  0.00000000E+00
  0.00000000E+00  0.00000000E+00  0.00000000E+00
  0.00000000E+00  0.00000000E+00  0.00000000E+00
  0.00000000E+00  0.00000000E+00  0.00000000E+00
  0.00000000E+00  0.00000000E+00  0.00000000E+00
  0.00000000E+00  0.00000000E+00  0.00000000E+00
  0.00000000E+00  0.00000000E+00  0.00000000E+00
  0.00000000E+00  0.00000000E+00  0.00000000E+00
  0.00000000E+00  0.00000000E+00  0.00000000E+00
  0.00000000E+00  0.00000000E+00  0.00000000E+00
  0.00000000E+00  0.00000000E+00  0.00000000E+00
  0.00000000E+00  0.00000000E+00  0.00000000E+00
  0.00000000E+00  0.00000000E+00  0.00000000E+00
  0.00000000E+00  0.00000000E+00  0.00000000E+00
  0.00000000E+00  0.00000000E+00  0.00000000E+00
  0.00000000E+00  0.00000000E+00  0.00000000E+00
  0.00000000E+00  0.00000000E+00  0.00000000E+00
  0.00000000E+00  0.00000000E+00  0.00000000E+00
  0.00000000E+00  0.00000000E+00  0.00000000E+00
  0.00000000E+00  0.00000000E+00  0.00000000E+00
  0.00000000E+00  0.00000000E+00  0.00000000E+00
  0.00000000E+00  0.00000000E+00  0.00000000E+00
  0.00000000E+00  0.00000000E+00  0.00000000E+00
  0.00000000E+00  0.00000000E+00  0.00000000E+00
  0.00000000E+00  0.00000000E+00  0.00000000E+00
  0.00000000E+00  0.00000000E+00  0.00000000E+00
  0.00000000E+00  0.00000000E+00  0.00000000E+00
  0.00000000E+00  0.00000000E+00  0.00000000E+00
  0.00000000E+00  0.00000000E+00  0.00000000E+00
  0.00000000E+00  0.00000000E+00  0.00000000E+00
  0.00000000E+00  0.00000000E+00  0.00000000E+00
  0.00000000E+00  0.00000000E+00  0.00000000E+00
  0.00000000E+00  0.00000000E+00  0.00000000E+00
  0.00000000E+00  0.00000000E+00  0.00000000E+00
  0.00000000E+00  0.00000000E+00  0.00000000E+00
  0.00000000E+00  0.00000000E+00  0.00000000E+00
  0.00000000E+00  0.00000000E+00  0.00000000E+00
  0.00000000E+00  0.00000000E+00  0.00000000E+00
  0.00000000E+00  0.00000000E+00  0.00000000E+00
  0.00000000E+00  0.00000000E+00  0.00000000E+00
  0.00000000E+00  0.00000000E+00  0.00000000E+00
  0.00000000E+00  0.00000000E+00  0.00000000E+00
  0.00000000E+00  0.00000000E+00  0.00000000E+00
  0.00000000E+00  0.00000000E+00  0.00000000E+00
  0.00000000E+00  0.00000000E+00  0.00000000E+00
  0.00000000E+00  0.00000000E+00  0.00000000E+00
  0.00000000E+00  0.00000000E+00  0.00000000E+00
  0.00000000E+00  0.00000000E+00  0.00000000E+00
  0.00000000E+00  0.00000000E+00  0.00000000E+00
  0.00000000E+00  0.00000000E+00  0.00000000E+00
  0.00000000E+00  0.00000000E+00  0.00000000E+00
  0.00000000E+00  0.00000000E+00  0.00000000E+00
  0.00000000E+00  0.00000000E+00  0.00000000E+00
  0.00000000E+00  0.00000000E+00  0.00000000E+00
  0.00000000E+00  0.00000000E+00  0.00000000E+00
  0.00000000E+00  0.00000000E+00  0.00000000E+00
  0.00000000E+00  0.00000000E+00  0.00000000E+00
  0.00000000E+00  0.00000000E+00  0.00000000E+00
  0.00000000E+00  0.00000000E+00  0.00000000E+00
  0.00000000E+00  0.00000000E+00  0.00000000E+00
  0.00000000E+00  0.00000000E+00  0.00000000E+00
  0.00000000E+00  0.00000000E+00  0.00000000E+00
  0.00000000E+00  0.00000000E+00  0.00000000E+00
  0.00000000E+00  0.00000000E+00  0.00000000E+00
  0.00000000E+00  0.00000000E+00  0.00000000E+00
  0.00000000E+00  0.00000000E+00  0.00000000E+00
  0.00000000E+00  0.00000000E+00  0.00000000E+00
  0.00000000E+00  0.00000000E+00  0.00000000E+00
  0.00000000E+00  0.00000000E+00  0.00000000E+00
  0.00000000E+00  0.00000000E+00  0.00000000E+00
  0.00000000E+00  0.00000000E+00  0.00000000E+00
  0.00000000E+00  0.00000000E+00  0.00000000E+00
  0.00000000E+00  0.00000000E+00  0.00000000E+00
  0.00000000E+00  0.00000000E+00  0.00000000E+00
  0.00000000E+00  0.00000000E+00  0.00000000E+00
  0.00000000E+00  0.00000000E+00  0.00000000E+00
  0.00000000E+00  0.00000000E+00  0.00000000E+00
  0.00000000E+00  0.00000000E+00  0.00000000E+00
  0.00000000E+00  0.00000000E+00  0.00000000E+00
  0.00000000E+00  0.00000000E+00  0.00000000E+00
  0.00000000E+00  0.00000000E+00  0.00000000E+00
  0.00000000E+00  0.00000000E+00  0.00000000E+00
  0.00000000E+00  0.00000000E+00  0.00000000E+00
  0.00000000E+00  0.00000000E+00  0.00000000E+00
  0.00000000E+00  0.00000000E+00  0.00000000E+00
  0.00000000E+00  0.00000000E+00  0.00000000E+00
  0.00000000E+00  0.00000000E+00  0.00000000E+00
  0.00000000E+00  0.00000000E+00  0.00000000E+00
  0.00000000E+00  0.00000000E+00  0.00000000E+00
  0.00000000E+00  0.00000000E+00  0.00000000E+00
  0.00000000E+00  0.00000000E+00  0.00000000E+00
  0.00000000E+00  0.00000000E+00  0.00000000E+00
  0.00000000E+00  0.00000000E+00  0.00000000E+00
  0.00000000E+00  0.00000000E+00  0.00000000E+00
  0.00000000E+00  0.00000000E+00  0.00000000E+00
  0.00000000E+00  0.00000000E+00  0.00000000E+00
  0.00000000E+00  0.00000000E+00  0.00000000E+00
  0.00000000E+00  0.00000000E+00  0.00000000E+00
  0.00000000E+00  0.00000000E+00  0.00000000E+00
  0.00000000E+00  0.00000000E+00  0.00000000E+00
  0.00000000E+00  0.00000000E+00  0.00000000E+00
  0.00000000E+00  0.00000000E+00  0.00000000E+00
  0.00000000E+00  0.00000000E+00  0.00000000E+00
  0.00000000E+00  0.00000000E+00  0.00000000E+00
  0.00000000E+00  0.00000000E+00  0.00000000E+00
  0.00000000E+00  0.00000000E+00  0.00000000E+00
  0.00000000E+00  0.00000000E+00  0.00000000E+00
  0.00000000E+00  0.00000000E+00  0.00000000E+00
  0.00000000E+00  0.00000000E+00  0.00000000E+00
  0.00000000E+00  0.00000000E+00  0.00000000E+00
  0.00000000E+00  0.00000000E+00  0.00000000E+00
  0.00000000E+00  0.00000000E+00  0.00000000E+00
  0.00000000E+00  0.00000000E+00  0.00000000E+00
  0.00000000E+00  0.00000000E+00  0.00000000E+00
  0.00000000E+00  0.00000000E+00  0.00000000E+00
  0.00000000E+00  0.00000000E+00  0.00000000E+00
  0.00000000E+00  0.00000000E+00  0.00000000E+00
  0.00000000E+00  0.00000000E+00  0.00000000E+00
  0.00000000E+00  0.00000000E+00  0.00000000E+00
  0.00000000E+00  0.00000000E+00  0.00000000E+00
  0.00000000E+00  0.00000000E+00  0.00000000E+00
  0.00000000E+00  0.00000000E+00  0.00000000E+00
  0.00000000E+00  0.00000000E+00  0.00000000E+00
  0.00000000E+00  0.00000000E+00  0.00000000E+00
  0.00000000E+00  0.00000000E+00  0.00000000E+00
  0.00000000E+00  0.00000000E+00  0.00000000E+00
  0.00000000E+00  0.00000000E+00  0.00000000E+00
  0.00000000E+00  0.00000000E+00  0.00000000E+00
  0.00000000E+00  0.00000000E+00  0.00000000E+00
  0.00000000E+00  0.00000000E+00  0.00000000E+00
  0.00000000E+00  0.00000000E+00  0.00000000E+00
  0.00000000E+00  0.00000000E+00  0.00000000E+00
  0.00000000E+00  0.00000000E+00  0.00000000E+00
  0.00000000E+00  0.00000000E+00  0.00000000E+00
  0.00000000E+00  0.00000000E+00  0.00000000E+00
  0.00000000E+00  0.00000000E+00  0.00000000E+00
  0.00000000E+00  0.00000000E+00  0.00000000E+00
  0.00000000E+00  0.00000000E+00  0.00000000E+00
  0.00000000E+00  0.00000000E+00  0.00000000E+00
  0.00000000E+00  0.00000000E+00  0.00000000E+00
  0.00000000E+00  0.00000000E+00  0.00000000E+00
  0.00000000E+00  0.00000000E+00  0.00000000E+00
  0.00000000E+00  0.00000000E+00  0.00000000E+00
  0.00000000E+00  0.00000000E+00  0.00000000E+00
  0.00000000E+00  0.00000000E+00  0.00000000E+00
  0.00000000E+00  0.00000000E+00  0.00000000E+00
  0.00000000E+00  0.00000000E+00  0.00000000E+00
  0.00000000E+00  0.00000000E+00  0.00000000E+00
  0.00000000E+00  0.00000000E+00  0.00000000E+00
  0.00000000E+00  0.00000000E+00  0.00000000E+00
  0.00000000E+00  0.00000000E+00  0.00000000E+00
  0.00000000E+00  0.00000000E+00  0.00000000E+00
  0.00000000E+00  0.00000000E+00  0.00000000E+00
  0.00000000E+00  0.00000000E+00  0.00000000E+00
  0.00000000E+00  0.00000000E+00  0.00000000E+00
  0.00000000E+00  0.00000000E+00  0.00000000E+00
  0.00000000E+00  0.00000000E+00  0.00000000E+00
