Si100                                   
   1.00000000000000     
    10.2114949999999993    0.0000000000000000    0.0000000000000000
     0.0000000000000000   10.2114949999999993    0.0000000000000000
     0.0000000000000000    0.0000000000000000   10.2114949999999993
   Si
   100
Direct
  0.7999999999999972  0.6000000000000014  0.2000000000000028
  0.7999999999999972  0.7999999999999972  0.0000000000000000
  0.6000000000000014  0.2000000000000028  0.3999999999999986
  0.7999999999999972  0.2000000000000028  0.7999999999999972
  0.3999999999999986  0.0000000000000000  0.3999999999999986
  0.6000000000000014  0.7999999999999972  0.7999999999999972
  0.6000000000000014  0.6000000000000014  0.3999999999999986
  0.6000000000000014  0.6000000000000014  0.2000000000000028
  0.3999999999999986  0.0000000000000000  0.2000000000000028
  0.0000000000000000  0.0000000000000000  0.0000000000000000
  0.2000000000000028  0.2000000000000028  0.3999999999999986
  0.7999999999999972  0.2000000000000028  0.3999999999999986
  0.0000000000000000  0.2000000000000028  0.7999999999999972
  0.7999999999999972  0.2000000000000028  0.6000000000000014
  0.0000000000000000  0.2000000000000028  0.6000000000000014
  0.2000000000000028  0.0000000000000000  0.3999999999999986
  0.0000000000000000  0.0000000000000000  0.6000000000000014
  0.2000000000000028  0.2000000000000028  0.0000000000000000
  0.3999999999999986  0.2000000000000028  0.3999999999999986
  0.6000000000000014  0.7999999999999972  0.3999999999999986
  0.6000000000000014  0.7999999999999972  0.0000000000000000
  0.0000000000000000  0.3999999999999986  0.6000000000000014
  0.6000000000000014  0.2000000000000028  0.0000000000000000
  0.3999999999999986  0.6000000000000014  0.3999999999999986
  0.7999999999999972  0.0000000000000000  0.3999999999999986
  0.0000000000000000  0.3999999999999986  0.2000000000000028
  0.2000000000000028  0.0000000000000000  0.0000000000000000
  0.2000000000000028  0.3999999999999986  0.3999999999999986
  0.3999999999999986  0.3999999999999986  0.0000000000000000
  0.6000000000000014  0.0000000000000000  0.7999999999999972
  0.6000000000000014  0.0000000000000000  0.3999999999999986
  0.2000000000000028  0.0000000000000000  0.7999999999999972
  0.2000000000000028  0.7999999999999972  0.0000000000000000
  0.2000000000000028  0.6000000000000014  0.3999999999999986
  0.2000000000000028  0.3999999999999986  0.2000000000000028
  0.0000000000000000  0.7999999999999972  0.0000000000000000
  0.3999999999999986  0.7999999999999972  0.2000000000000028
  0.7999999999999972  0.6000000000000014  0.3999999999999986
  0.0000000000000000  0.2000000000000028  0.2000000000000028
  0.3999999999999986  0.0000000000000000  0.0000000000000000
  0.6000000000000014  0.6000000000000014  0.0000000000000000
  0.6000000000000014  0.3999999999999986  0.6000000000000014
  0.0000000000000000  0.0000000000000000  0.2000000000000028
  0.0000000000000000  0.6000000000000014  0.6000000000000014
  0.3999999999999986  0.2000000000000028  0.6000000000000014
  0.2000000000000028  0.3999999999999986  0.6000000000000014
  0.7999999999999972  0.2000000000000028  0.2000000000000028
  0.6000000000000014  0.2000000000000028  0.6000000000000014
  0.3999999999999986  0.2000000000000028  0.7999999999999972
  0.7999999999999972  0.0000000000000000  0.0000000000000000
  0.2000000000000028  0.2000000000000028  0.7999999999999972
  0.2000000000000028  0.6000000000000014  0.2000000000000028
  0.3999999999999986  0.0000000000000000  0.7999999999999972
  0.0000000000000000  0.6000000000000014  0.7999999999999972
  0.3999999999999986  0.3999999999999986  0.2000000000000028
  0.0000000000000000  0.7999999999999972  0.7999999999999972
  0.2000000000000028  0.6000000000000014  0.6000000000000014
  0.7999999999999972  0.7999999999999972  0.3999999999999986
  0.2000000000000028  0.6000000000000014  0.0000000000000000
  0.6000000000000014  0.0000000000000000  0.6000000000000014
  0.6000000000000014  0.0000000000000000  0.0000000000000000
  0.2000000000000028  0.0000000000000000  0.6000000000000014
  0.6000000000000014  0.6000000000000014  0.6000000000000014
  0.2000000000000028  0.7999999999999972  0.2000000000000028
  0.3999999999999986  0.3999999999999986  0.7999999999999972
  0.2000000000000028  0.0000000000000000  0.2000000000000028
  0.0000000000000000  0.6000000000000014  0.3999999999999986
  0.2000000000000028  0.2000000000000028  0.6000000000000014
  0.7999999999999972  0.6000000000000014  0.7999999999999972
  0.7999999999999972  0.7999999999999972  0.7999999999999972
  0.6000000000000014  0.2000000000000028  0.7999999999999972
  0.2000000000000028  0.6000000000000014  0.7999999999999972
  0.2000000000000028  0.7999999999999972  0.7999999999999972
  0.6000000000000014  0.7999999999999972  0.6000000000000014
  0.6000000000000014  0.3999999999999986  0.0000000000000000
  0.3999999999999986  0.7999999999999972  0.3999999999999986
  0.3999999999999986  0.7999999999999972  0.0000000000000000
  0.3999999999999986  0.3999999999999986  0.3999999999999986
  0.0000000000000000  0.6000000000000014  0.0000000000000000
  0.6000000000000014  0.6000000000000014  0.7999999999999972
  0.6000000000000014  0.3999999999999986  0.3999999999999986
  0.2000000000000028  0.7999999999999972  0.3999999999999986
  0.7999999999999972  0.0000000000000000  0.7999999999999972
  0.3999999999999986  0.6000000000000014  0.6000000000000014
  0.3999999999999986  0.2000000000000028  0.0000000000000000
  0.3999999999999986  0.2000000000000028  0.2000000000000028
  0.3999999999999986  0.6000000000000014  0.0000000000000000
  0.7999999999999972  0.0000000000000000  0.6000000000000014
  0.3999999999999986  0.7999999999999972  0.7999999999999972
  0.6000000000000014  0.0000000000000000  0.2000000000000028
  0.3999999999999986  0.0000000000000000  0.6000000000000014
  0.6000000000000014  0.3999999999999986  0.2000000000000028
  0.3999999999999986  0.7999999999999972  0.6000000000000014
  0.7999999999999972  0.3999999999999986  0.0000000000000000
  0.0000000000000000  0.7999999999999972  0.3999999999999986
  0.0000000000000000  0.2000000000000028  0.0000000000000000
  0.2000000000000028  0.3999999999999986  0.0000000000000000
  0.0000000000000000  0.7999999999999972  0.6000000000000014
  0.2000000000000028  0.7999999999999972  0.6000000000000014
  0.2000000000000028  0.2000000000000028  0.2000000000000028
 
  0.00000000E+00  0.00000000E+00  0.00000000E+00
  0.00000000E+00  0.00000000E+00  0.00000000E+00
  0.00000000E+00  0.00000000E+00  0.00000000E+00
  0.00000000E+00  0.00000000E+00  0.00000000E+00
  0.00000000E+00  0.00000000E+00  0.00000000E+00
  0.00000000E+00  0.00000000E+00  0.00000000E+00
  0.00000000E+00  0.00000000E+00  0.00000000E+00
  0.00000000E+00  0.00000000E+00  0.00000000E+00
  0.00000000E+00  0.00000000E+00  0.00000000E+00
  0.00000000E+00  0.00000000E+00  0.00000000E+00
  0.00000000E+00  0.00000000E+00  0.00000000E+00
  0.00000000E+00  0.00000000E+00  0.00000000E+00
  0.00000000E+00  0.00000000E+00  0.00000000E+00
  0.00000000E+00  0.00000000E+00  0.00000000E+00
  0.00000000E+00  0.00000000E+00  0.00000000E+00
  0.00000000E+00  0.00000000E+00  0.00000000E+00
  0.00000000E+00  0.00000000E+00  0.00000000E+00
  0.00000000E+00  0.00000000E+00  0.00000000E+00
  0.00000000E+00  0.00000000E+00  0.00000000E+00
  0.00000000E+00  0.00000000E+00  0.00000000E+00
  0.00000000E+00  0.00000000E+00  0.00000000E+00
  0.00000000E+00  0.00000000E+00  0.00000000E+00
  0.00000000E+00  0.00000000E+00  0.00000000E+00
  0.00000000E+00  0.00000000E+00  0.00000000E+00
  0.00000000E+00  0.00000000E+00  0.00000000E+00
  0.00000000E+00  0.00000000E+00  0.00000000E+00
  0.00000000E+00  0.00000000E+00  0.00000000E+00
  0.00000000E+00  0.00000000E+00  0.00000000E+00
  0.00000000E+00  0.00000000E+00  0.00000000E+00
  0.00000000E+00  0.00000000E+00  0.00000000E+00
  0.00000000E+00  0.00000000E+00  0.00000000E+00
  0.00000000E+00  0.00000000E+00  0.00000000E+00
  0.00000000E+00  0.00000000E+00  0.00000000E+00
  0.00000000E+00  0.00000000E+00  0.00000000E+00
  0.00000000E+00  0.00000000E+00  0.00000000E+00
  0.00000000E+00  0.00000000E+00  0.00000000E+00
  0.00000000E+00  0.00000000E+00  0.00000000E+00
  0.00000000E+00  0.00000000E+00  0.00000000E+00
  0.00000000E+00  0.00000000E+00  0.00000000E+00
  0.00000000E+00  0.00000000E+00  0.00000000E+00
  0.00000000E+00  0.00000000E+00  0.00000000E+00
  0.00000000E+00  0.00000000E+00  0.00000000E+00
  0.00000000E+00  0.00000000E+00  0.00000000E+00
  0.00000000E+00  0.00000000E+00  0.00000000E+00
  0.00000000E+00  0.00000000E+00  0.00000000E+00
  0.00000000E+00  0.00000000E+00  0.00000000E+00
  0.00000000E+00  0.00000000E+00  0.00000000E+00
  0.00000000E+00  0.00000000E+00  0.00000000E+00
  0.00000000E+00  0.00000000E+00  0.00000000E+00
  0.00000000E+00  0.00000000E+00  0.00000000E+00
  0.00000000E+00  0.00000000E+00  0.00000000E+00
  0.00000000E+00  0.00000000E+00  0.00000000E+00
  0.00000000E+00  0.00000000E+00  0.00000000E+00
  0.00000000E+00  0.00000000E+00  0.00000000E+00
  0.00000000E+00  0.00000000E+00  0.00000000E+00
  0.00000000E+00  0.00000000E+00  0.00000000E+00
  0.00000000E+00  0.00000000E+00  0.00000000E+00
  0.00000000E+00  0.00000000E+00  0.00000000E+00
  0.00000000E+00  0.00000000E+00  0.00000000E+00
  0.00000000E+00  0.00000000E+00  0.00000000E+00
  0.00000000E+00  0.00000000E+00  0.00000000E+00
  0.00000000E+00  0.00000000E+00  0.00000000E+00
  0.00000000E+00  0.00000000E+00  0.00000000E+00
  0.00000000E+00  0.00000000E+00  0.00000000E+00
  0.00000000E+00  0.00000000E+00  0.00000000E+00
  0.00000000E+00  0.00000000E+00  0.00000000E+00
  0.00000000E+00  0.00000000E+00  0.00000000E+00
  0.00000000E+00  0.00000000E+00  0.00000000E+00
  0.00000000E+00  0.00000000E+00  0.00000000E+00
  0.00000000E+00  0.00000000E+00  0.00000000E+00
  0.00000000E+00  0.00000000E+00  0.00000000E+00
  0.00000000E+00  0.00000000E+00  0.00000000E+00
  0.00000000E+00  0.00000000E+00  0.00000000E+00
  0.00000000E+00  0.00000000E+00  0.00000000E+00
  0.00000000E+00  0.00000000E+00  0.00000000E+00
  0.00000000E+00  0.00000000E+00  0.00000000E+00
  0.00000000E+00  0.00000000E+00  0.00000000E+00
  0.00000000E+00  0.00000000E+00  0.00000000E+00
  0.00000000E+00  0.00000000E+00  0.00000000E+00
  0.00000000E+00  0.00000000E+00  0.00000000E+00
  0.00000000E+00  0.00000000E+00  0.00000000E+00
  0.00000000E+00  0.00000000E+00  0.00000000E+00
  0.00000000E+00  0.00000000E+00  0.00000000E+00
  0.00000000E+00  0.00000000E+00  0.00000000E+00
  0.00000000E+00  0.00000000E+00  0.00000000E+00
  0.00000000E+00  0.00000000E+00  0.00000000E+00
  0.00000000E+00  0.00000000E+00  0.00000000E+00
  0.00000000E+00  0.00000000E+00  0.00000000E+00
  0.00000000E+00  0.00000000E+00  0.00000000E+00
  0.00000000E+00  0.00000000E+00  0.00000000E+00
  0.00000000E+00  0.00000000E+00  0.00000000E+00
  0.00000000E+00  0.00000000E+00  0.00000000E+00
  0.00000000E+00  0.00000000E+00  0.00000000E+00
  0.00000000E+00  0.00000000E+00  0.00000000E+00
  0.00000000E+00  0.00000000E+00  0.00000000E+00
  0.00000000E+00  0.00000000E+00  0.00000000E+00
  0.00000000E+00  0.00000000E+00  0.00000000E+00
  0.00000000E+00  0.00000000E+00  0.00000000E+00
  0.00000000E+00  0.00000000E+00  0.00000000E+00
  0.00000000E+00  0.00000000E+00  0.00000000E+00
