Si                                      
   1.00000000000000     
    10.2114949999999993    0.0000000000000000    0.0000000000000000
     0.0000000000000000   10.2114949999999993    0.0000000000000000
     0.0000000000000000    0.0000000000000000   10.2114949999999993
   Si
   100
Direct
  0.0995631999999986  0.0903654000000031  0.0436347999999995
  0.1450340000000025  0.7564240000000026  0.5756749999999968
  0.5945559999999972  0.7015000000000029  0.8731700000000018
  0.0825553000000028  0.4779580000000010  0.2363610000000023
  0.3037879999999973  0.2324479999999980  0.3885519999999971
  0.4458190000000002  0.4213949999999969  0.3657869999999974
  0.6934090000000026  0.3747260000000026  0.3761489999999981
  0.8485990000000001  0.3124240000000000  0.9917909999999992
  0.8325159999999983  0.2890739999999994  0.2086579999999998
  0.7759909999999977  0.5740789999999976  0.4521299999999968
  0.8066209999999998  0.7212409999999991  0.3057060000000007
  0.5392269999999968  0.2235409999999973  0.4607699999999966
  0.8627759999999967  0.0082900000000024  0.4325150000000022
  0.6549550000000011  0.0054500000000033  0.0999473999999978
  0.7741550000000004  0.6718559999999982  0.0933855999999977
  0.1577359999999999  0.8904110000000003  0.1568029999999965
  0.1567620000000005  0.9223819999999989  0.8614719999999991
  0.6843319999999977  0.0639103999999975  0.8507710000000017
  0.9826160000000002  0.5161950000000033  0.0453247000000019
  0.6935590000000005  0.1452079999999967  0.3055820000000011
  0.0204499999999967  0.7147700000000015  0.1768950000000018
  0.6910519999999991  0.5548500000000018  0.6820700000000031
  0.8796139999999966  0.8091750000000033  0.5324710000000010
  0.1238719999999986  0.4654590000000027  0.8982180000000000
  0.5860219999999998  0.8859059999999985  0.7287310000000033
  0.5906099999999981  0.8073720000000009  0.1827970000000008
  0.5010860000000008  0.7916379999999990  0.4106620000000021
  0.7416559999999990  0.8632729999999995  0.9643450000000016
  0.5077959999999990  0.1445200000000000  0.9456810000000004
  0.4724220000000017  0.6750079999999983  0.6907149999999973
  0.9692149999999984  0.0939006999999989  0.2374879999999990
  0.5292590000000033  0.8729409999999973  0.9611050000000034
  0.2703649999999982  0.8794320000000013  0.4345429999999979
  0.6687399999999997  0.9322310000000016  0.3268339999999981
  0.3241849999999999  0.1229220000000026  0.5884739999999979
  0.5721679999999978  0.3291299999999993  0.6458579999999969
  0.1314240000000026  0.5330310000000011  0.5732700000000008
  0.8635829999999984  0.4875919999999994  0.8251100000000022
  0.3847480000000019  0.6487880000000033  0.9160510000000031
  0.2574499999999986  0.1274259999999998  0.2120669999999976
  0.0420583000000008  0.3011589999999984  0.1091029999999975
  0.3056669999999997  0.5357109999999992  0.7366359999999972
  0.6724069999999998  0.7604630000000014  0.5357869999999991
  0.6801659999999998  0.4978920000000002  0.9440669999999969
  0.2060280000000034  0.6602760000000032  0.2973089999999985
  0.4868840000000034  0.2254849999999990  0.2144540000000035
  0.3556560000000033  0.7969390000000018  0.2354070000000021
  0.0638033999999976  0.6270540000000011  0.7660150000000030
  0.3937889999999982  0.5746820000000028  0.2349919999999983
  0.9585429999999988  0.4363019999999977  0.4584869999999981
  0.9997559999999979  0.3749710000000022  0.6755250000000004
  0.3432060000000021  0.6491579999999999  0.4959699999999998
  0.0304321999999999  0.2574770000000015  0.8880539999999968
  0.2912779999999984  0.0701764000000011  0.9998274419999973
  0.5094939999999966  0.1016210000000015  0.6904779999999988
  0.1376369999999980  0.2568789999999979  0.5429129999999986
  0.6650769999999966  0.2326679999999968  0.0755251000000001
  0.0053600000000031  0.6406490000000034  0.4107649999999978
  0.1370769999999979  0.9699090000000012  0.6147589999999994
  0.7554700000000025  0.7532670000000010  0.7449190000000030
  0.6404080000000008  0.2926149999999978  0.8500330000000034
  0.8980749999999986  0.6917830000000009  0.9065299999999965
  0.3602040000000031  0.9927550000000025  0.8157950000000014
  0.1567519999999973  0.0770572999999999  0.4070430000000016
  0.4425349999999995  0.0114250999999967  0.1510480000000030
  0.1912579999999977  0.3439339999999973  0.7466510000000000
  0.2858030000000014  0.7823270000000022  0.7696850000000026
  0.0538731999999982  0.2877149999999986  0.3393919999999966
  0.5903759999999991  0.9761790000000019  0.5259080000000012
  0.3376719999999978  0.8386909999999972  0.0246899999999997
  0.9872942000000009  0.1096379999999968  0.6013099999999980
  0.5441950000000020  0.6069990000000018  0.0771342000000033
  0.4995550000000009  0.4692239999999970  0.8100560000000030
  0.8669749999999965  0.2329560000000015  0.4186720000000008
  0.8625889999999998  0.0896357000000023  0.0422921999999986
  0.2285030000000035  0.4570890000000034  0.4052170000000004
  0.9874310000000008  0.8284030000000016  0.7217010000000030
  0.3953029999999984  0.2598640000000003  0.7958849999999984
  0.7777030000000025  0.3877209999999991  0.5825249999999969
  0.4355449999999976  0.3999799999999993  0.0165841999999969
  0.2688089999999974  0.2798939999999988  0.9807550000000020
  0.9484700000000004  0.0683614000000006  0.8388339999999985
  0.8977100000000036  0.6145950000000013  0.6262929999999969
  0.7127630000000025  0.1563950000000034  0.5723199999999977
  0.9778608000000020  0.8856010000000012  0.9900769999999994
  0.8609620000000007  0.9127089999999995  0.1975869999999986
  0.8254650000000012  0.9763269999999977  0.6938800000000001
  0.1479349999999968  0.7252889999999965  0.9683700000000002
  0.3741649999999979  0.3640380000000007  0.5884470000000022
  0.1669130000000010  0.1297160000000019  0.7459920000000011
  0.5154950000000014  0.5272039999999976  0.5422629999999984
  0.0521799999999999  0.8822740000000024  0.3536610000000024
  0.2739049999999992  0.3633049999999969  0.2067169999999976
  0.3976359999999985  0.9031489999999991  0.6179589999999990
  0.5903800000000032  0.4314340000000030  0.1871620000000007
  0.4553000000000011  0.0276054999999999  0.3730410000000006
  0.8302779999999998  0.2677350000000018  0.7744819999999990
  0.6043360000000035  0.6153309999999976  0.3208800000000025
  0.8558749999999975  0.5202549999999988  0.2273619999999994
  0.2414330000000007  0.5518089999999987  0.0572100999999989
 
  0.00000000E+00  0.00000000E+00  0.00000000E+00
  0.00000000E+00  0.00000000E+00  0.00000000E+00
  0.00000000E+00  0.00000000E+00  0.00000000E+00
  0.00000000E+00  0.00000000E+00  0.00000000E+00
  0.00000000E+00  0.00000000E+00  0.00000000E+00
  0.00000000E+00  0.00000000E+00  0.00000000E+00
  0.00000000E+00  0.00000000E+00  0.00000000E+00
  0.00000000E+00  0.00000000E+00  0.00000000E+00
  0.00000000E+00  0.00000000E+00  0.00000000E+00
  0.00000000E+00  0.00000000E+00  0.00000000E+00
  0.00000000E+00  0.00000000E+00  0.00000000E+00
  0.00000000E+00  0.00000000E+00  0.00000000E+00
  0.00000000E+00  0.00000000E+00  0.00000000E+00
  0.00000000E+00  0.00000000E+00  0.00000000E+00
  0.00000000E+00  0.00000000E+00  0.00000000E+00
  0.00000000E+00  0.00000000E+00  0.00000000E+00
  0.00000000E+00  0.00000000E+00  0.00000000E+00
  0.00000000E+00  0.00000000E+00  0.00000000E+00
  0.00000000E+00  0.00000000E+00  0.00000000E+00
  0.00000000E+00  0.00000000E+00  0.00000000E+00
  0.00000000E+00  0.00000000E+00  0.00000000E+00
  0.00000000E+00  0.00000000E+00  0.00000000E+00
  0.00000000E+00  0.00000000E+00  0.00000000E+00
  0.00000000E+00  0.00000000E+00  0.00000000E+00
  0.00000000E+00  0.00000000E+00  0.00000000E+00
  0.00000000E+00  0.00000000E+00  0.00000000E+00
  0.00000000E+00  0.00000000E+00  0.00000000E+00
  0.00000000E+00  0.00000000E+00  0.00000000E+00
  0.00000000E+00  0.00000000E+00  0.00000000E+00
  0.00000000E+00  0.00000000E+00  0.00000000E+00
  0.00000000E+00  0.00000000E+00  0.00000000E+00
  0.00000000E+00  0.00000000E+00  0.00000000E+00
  0.00000000E+00  0.00000000E+00  0.00000000E+00
  0.00000000E+00  0.00000000E+00  0.00000000E+00
  0.00000000E+00  0.00000000E+00  0.00000000E+00
  0.00000000E+00  0.00000000E+00  0.00000000E+00
  0.00000000E+00  0.00000000E+00  0.00000000E+00
  0.00000000E+00  0.00000000E+00  0.00000000E+00
  0.00000000E+00  0.00000000E+00  0.00000000E+00
  0.00000000E+00  0.00000000E+00  0.00000000E+00
  0.00000000E+00  0.00000000E+00  0.00000000E+00
  0.00000000E+00  0.00000000E+00  0.00000000E+00
  0.00000000E+00  0.00000000E+00  0.00000000E+00
  0.00000000E+00  0.00000000E+00  0.00000000E+00
  0.00000000E+00  0.00000000E+00  0.00000000E+00
  0.00000000E+00  0.00000000E+00  0.00000000E+00
  0.00000000E+00  0.00000000E+00  0.00000000E+00
  0.00000000E+00  0.00000000E+00  0.00000000E+00
  0.00000000E+00  0.00000000E+00  0.00000000E+00
  0.00000000E+00  0.00000000E+00  0.00000000E+00
  0.00000000E+00  0.00000000E+00  0.00000000E+00
  0.00000000E+00  0.00000000E+00  0.00000000E+00
  0.00000000E+00  0.00000000E+00  0.00000000E+00
  0.00000000E+00  0.00000000E+00  0.00000000E+00
  0.00000000E+00  0.00000000E+00  0.00000000E+00
  0.00000000E+00  0.00000000E+00  0.00000000E+00
  0.00000000E+00  0.00000000E+00  0.00000000E+00
  0.00000000E+00  0.00000000E+00  0.00000000E+00
  0.00000000E+00  0.00000000E+00  0.00000000E+00
  0.00000000E+00  0.00000000E+00  0.00000000E+00
  0.00000000E+00  0.00000000E+00  0.00000000E+00
  0.00000000E+00  0.00000000E+00  0.00000000E+00
  0.00000000E+00  0.00000000E+00  0.00000000E+00
  0.00000000E+00  0.00000000E+00  0.00000000E+00
  0.00000000E+00  0.00000000E+00  0.00000000E+00
  0.00000000E+00  0.00000000E+00  0.00000000E+00
  0.00000000E+00  0.00000000E+00  0.00000000E+00
  0.00000000E+00  0.00000000E+00  0.00000000E+00
  0.00000000E+00  0.00000000E+00  0.00000000E+00
  0.00000000E+00  0.00000000E+00  0.00000000E+00
  0.00000000E+00  0.00000000E+00  0.00000000E+00
  0.00000000E+00  0.00000000E+00  0.00000000E+00
  0.00000000E+00  0.00000000E+00  0.00000000E+00
  0.00000000E+00  0.00000000E+00  0.00000000E+00
  0.00000000E+00  0.00000000E+00  0.00000000E+00
  0.00000000E+00  0.00000000E+00  0.00000000E+00
  0.00000000E+00  0.00000000E+00  0.00000000E+00
  0.00000000E+00  0.00000000E+00  0.00000000E+00
  0.00000000E+00  0.00000000E+00  0.00000000E+00
  0.00000000E+00  0.00000000E+00  0.00000000E+00
  0.00000000E+00  0.00000000E+00  0.00000000E+00
  0.00000000E+00  0.00000000E+00  0.00000000E+00
  0.00000000E+00  0.00000000E+00  0.00000000E+00
  0.00000000E+00  0.00000000E+00  0.00000000E+00
  0.00000000E+00  0.00000000E+00  0.00000000E+00
  0.00000000E+00  0.00000000E+00  0.00000000E+00
  0.00000000E+00  0.00000000E+00  0.00000000E+00
  0.00000000E+00  0.00000000E+00  0.00000000E+00
  0.00000000E+00  0.00000000E+00  0.00000000E+00
  0.00000000E+00  0.00000000E+00  0.00000000E+00
  0.00000000E+00  0.00000000E+00  0.00000000E+00
  0.00000000E+00  0.00000000E+00  0.00000000E+00
  0.00000000E+00  0.00000000E+00  0.00000000E+00
  0.00000000E+00  0.00000000E+00  0.00000000E+00
  0.00000000E+00  0.00000000E+00  0.00000000E+00
  0.00000000E+00  0.00000000E+00  0.00000000E+00
  0.00000000E+00  0.00000000E+00  0.00000000E+00
  0.00000000E+00  0.00000000E+00  0.00000000E+00
  0.00000000E+00  0.00000000E+00  0.00000000E+00
  0.00000000E+00  0.00000000E+00  0.00000000E+00
