Si 
 1.0000000000000000
    10.2114949999999993    0.0000000000000000    0.0000000000000000
     0.0000000000000000   10.2114949999999993    0.0000000000000000
     0.0000000000000000    0.0000000000000000   10.2114949999999993
 100
Cartesian
  1.0166891189839999  0.9227658302730000  0.4455765420260000
  1.4810139658299999  7.7242198938799991  5.8785023841250004
  6.0713056212199996  7.1633637424999996  8.9163710891499992
  0.8430130331735000  4.8806657272099994  2.4135991696949999
  3.1021296430599996  2.3736415897599996  3.9676968052399997
  4.5524784894049999  4.3030729355249999  3.7352321215649993
  7.0807425364550003  3.8265126753699996  3.8410436327549999
  8.6654644455050001  3.1903161138799994 10.1276688375449986
  8.5012329714200003  2.9518777056299998  2.1307101237100001
  7.9240282165449996  5.8622048381049998  4.6169232343499997
  8.2368063083949998  7.3649488652950001  3.1217152904699996
  5.5063138143649999  2.2826878037949996  4.7051505511500000
  8.8102328101199987 10.2961482935499991  4.4166247599249999
  6.6880697077249991 10.2671476477499990  1.0206123753630001
  7.9052799117249997  6.8606541847199995  0.9536065874719999
  1.6107203753199997  9.0924274744449995  1.6011930504849998
  1.6007743791900000  9.4188991810899996  8.7969170206399987
  6.9880527963399999  0.6526207300480000  8.6876438126449997
 10.0339783709199999  5.2711226615249993  0.4628329474265000
  7.0822742607049998  1.4827907659599999  3.1204490650899999
 10.4203200727500001  7.2988702811499993  1.8063624080249998
  7.0566740427399992  5.6658480007499987  6.9649543946499994
  8.9821739629300001  8.2628864666249999  5.4373249541449997
  1.2649183086399998  4.7530322512050001  9.1721486159099985
  5.9841607228900005  9.0464246894699993  7.4414329628450000
  6.0310110619499993  8.2444751411399988  1.8666306515149997
  5.1168371835700004  8.0838074788099998  4.1934729596900002
  7.5734165357199990  8.8153079231349984  9.8474041457750001
  5.1853563150199999  1.4757652574000000  9.6568168030949995
  4.8241348908899999  6.8928408169599997  7.0532327689249996
  9.8971341264249997  0.9588665285465000  2.4251075245600000
  5.4045256322049999  8.9140326567949995  9.8143189019749997
  2.7608308456750001  8.9803154708399990  4.4373336717849998
  6.8288351662999993  9.5194721953449992  3.3374637568300001
  3.3104135065749998  1.2552173883900000  6.0091993086300004
  5.8426906711599997  3.3609093493499995  6.5951757377100000
  1.3420355188799999  5.4430433913450003  5.8539437386499991
  8.8184734865849990  4.9790432700400000  8.4256066394499989
  3.9288522782599995  6.6250954180599999  9.3542502062449984
  2.6289493877500001  1.3012099618699999  2.1655211101649998
  0.4294781201585000  3.0752836227049998  1.1141047389850001
  3.1213170421649998  5.4704101979450002  7.5221548308199990
  6.8662807184649992  7.7654641221849996  5.4711862715650001
  6.9455117081699997  5.0842216685399997  9.6403354501649989
  2.1038538918599996  6.7424050726199996  3.0359693669549999
  4.9718135315799996  2.3025389500749998  2.1898959487299998
  3.6317794657200002  8.1379386138049998  2.4038574034650000
  0.6515281000829999  6.4031587857299996  7.8221583424249994
  4.0211744045549995  5.8683623695899998  2.3996196330399999
  9.7881570517849994  4.4552956914899999  4.6818377080649993
 10.2090033952199999  3.8290144916449997  6.8981201598749999
  3.5046463529700000  6.6288736712100000  5.0645951751500000
  0.3107582581390000  2.6292250981150000  9.0683589807300002
  2.9743838406099998  0.7166059577180000 -0.0017620751542100
  5.2026954335299997  1.0377023333950000  7.0508126446099997
  1.4054795373150000  2.6231186241050000  5.5439533849349996
  6.7914304601149995  2.3758881186599998  0.7712241810245000
 10.2662286131999991  6.5419840602549995  4.1945247436749993
  1.3997611001149999  9.9042209039550002  6.2776084547049997
  7.7144781276499996  7.6919822041649999  7.6067366439049993
  6.5395230899599994  2.9880366094249999  8.6801077293349991
  9.1706883721249994  7.0641386455849995  9.2570265623499992
  3.6782213449799999 10.1375127187250005  8.3304865635249996
  1.6006722642400000  0.7868702336635000  4.1565175592849997
  4.5189439398250002  0.1166673515245000  1.5424258967599997
  1.9530301107099999  3.5120803213300000  7.6244229532449994
  2.9184759054849994  7.9887282488649998  7.8596345290749987
  0.5501259124340000  2.9380002839249997  3.4656997110400001
  6.0286215721199996  9.9682469776050002  5.3703069124600002
  3.4481359396400002  8.5642889530449988 10.4636168115500006
 -0.1297452131710000  1.1195678888100000  6.1402740584499993
  5.5570445215249995  6.1983672535049994  0.7876554976290000
  5.1012033847250002  4.7914785298799991  8.2718827937199997
  8.8531108776249994  2.3788290292199998  4.2752670346399997
  8.8083232605549995  0.9153145023714999  0.4318665888390000
  2.3333572419849999  4.6675620380550003  4.1378713694149996
 10.0831467193449988  8.4592330924850003  7.3696461529950001
  4.0366346079849995  2.6535999366799996  8.1271756980749998
  7.9415102959850001  3.9592110528949997  5.9484511248749996
  4.4475655897749995  4.0843937701000002  0.1693494753790000
  2.7449417594550001  2.8581361815299995 10.0149747787249996
  9.6852966626499999  0.6980720942930000  8.5657491968299997
  9.1669611764500001  6.2759337695249995  6.3953878380349991
  7.2783758106849996  1.5970267605249999  5.8442428183999997
 -0.2260743301040000  9.0433101834949987 10.1101663351149984
  8.7917091581899989  9.3201233899549987  2.0176586625650001
  8.4292317201750002  9.9697582788649992  7.0855521505999999
  1.5106375128250000  7.4062849970549989  9.8885054131499981
  3.8207840266750002  3.7173722168099994  6.0089235982650004
  1.7044312649350000  1.3245942854199999  7.6176935780399990
  5.2639746150250000  5.3835410099800001  5.5373159131850000
 10.7443308090999974  9.0093365396299987  3.6114075331950000
  2.7969795379750000  3.7098871909749995  2.1108896119149998
  4.0604580258200000  9.2225014977549993  6.3102852387050001
  6.0286624180999997  4.4055861338300000  1.9112038271899998
  4.6492936734999999  0.2818934252225000  3.8093063062949999
  8.4783796456099996  2.7339746138249996  7.9086190705899995
  6.1711740423199997  6.2834494298449988  3.2766645155999998
  8.7397632831250007  5.3125813312250001  2.3217059261899999
  2.4653918723350001  5.6347948444549996  0.5842006500995000
