box tilt large

variable dmax equal 1.0e-3

units           metal
atom_style      atomic
boundary        p p p

read_data        input.pos

mass * 92.9064 # Nb

pair_style eam/alloy
pair_coeff * * Farkas.eam.alloy Nb Ti


# Set neighbor style
neighbor   2.0 bin

# Setup minimization style
min_style            cg
min_modify           dmax ${dmax} line quadratic

compute Pea all pe/atom

dump 1 all custom 1 output_ef.dump id type x y z fx fy fz c_Pea
dump_modify 1 sort id

run 0
