units           metal
atom_style	atomic
boundary        p p p

read_data        input.pos

mass * 92.9064 # Nb

