PREC = Normal
ALGO = Fast
LREAL = Auto
ISPIN = 2
ENCUT = 520
ISMEAR = 0
SIGMA = 0.05
EDIFF = 0.0001
NELMIN = 4
NELM = 500
IBRION = -1
NSW = 0
ISIF = 2
EDIFFG = -0.05
ISYM = 0
POTIM = 0.5
