# Electronic structure part
PREC = Normal                     # The precision mode.
ALGO = Normal                     # The electronic minimization algorithm.
LREAL = Auto                      # Whether the projection operators are evalulated in real-space or reciprocal space.
ISMEAR = 0                        # How the partial occupancies are set for each orbital.
ISYM = 0                          # How to deal with symmetry.
NELM = 120                        # The maximum number of sc steps.

# MD
IBRION = -1                         # main molecular dynamics tag
