Zr50 Cu50
1.0
14.871651 0.000000 0.000000
0.000000 14.871651 0.000000
0.000000 0.000000 14.871651
Zr Cu
50 50
direct
0.000000 0.800000 0.600000 Zr
0.600000 0.800000 0.800000 Zr
0.000000 0.200000 0.200000 Zr
0.800000 0.200000 0.000000 Zr
0.200000 0.000000 0.200000 Zr
0.400000 0.600000 0.200000 Zr
0.400000 0.800000 0.400000 Zr
0.200000 0.600000 0.200000 Zr
0.200000 0.200000 0.800000 Zr
0.200000 0.600000 0.800000 Zr
0.200000 0.400000 0.000000 Zr
0.800000 0.800000 0.800000 Zr
0.400000 0.000000 0.800000 Zr
0.600000 0.000000 0.200000 Zr
0.400000 0.400000 0.600000 Zr
0.600000 0.600000 0.000000 Zr
0.000000 0.000000 0.200000 Zr
0.400000 0.800000 0.800000 Zr
0.400000 0.000000 0.200000 Zr
0.000000 0.800000 0.000000 Zr
0.400000 0.200000 0.800000 Zr
0.200000 0.400000 0.200000 Zr
0.800000 0.800000 0.000000 Zr
0.800000 0.600000 0.200000 Zr
0.600000 0.200000 0.000000 Zr
0.000000 0.200000 0.400000 Zr
0.000000 0.600000 0.200000 Zr
0.800000 0.800000 0.600000 Zr
0.600000 0.000000 0.600000 Zr
0.200000 0.400000 0.800000 Zr
0.000000 0.200000 0.600000 Zr
0.600000 0.400000 0.600000 Zr
0.000000 0.400000 0.800000 Zr
0.800000 0.400000 0.200000 Zr
0.000000 0.600000 0.000000 Zr
0.800000 0.200000 0.600000 Zr
0.600000 0.800000 0.400000 Zr
0.000000 0.400000 0.000000 Zr
0.600000 0.800000 0.200000 Zr
0.800000 0.000000 0.000000 Zr
0.400000 0.600000 0.000000 Zr
0.200000 0.800000 0.200000 Zr
0.200000 0.400000 0.400000 Zr
0.400000 0.600000 0.600000 Zr
0.800000 0.000000 0.400000 Zr
0.600000 0.600000 0.600000 Zr
0.200000 0.000000 0.400000 Zr
0.600000 0.600000 0.200000 Zr
0.000000 0.200000 0.000000 Zr
0.600000 0.600000 0.800000 Zr
0.200000 0.200000 0.000000 Cu
0.800000 0.400000 0.800000 Cu
0.800000 0.000000 0.800000 Cu
0.800000 0.600000 0.800000 Cu
0.200000 0.600000 0.400000 Cu
0.600000 0.000000 0.800000 Cu
0.200000 0.000000 0.600000 Cu
0.000000 0.000000 0.000000 Cu
0.400000 0.000000 0.400000 Cu
0.400000 0.800000 0.600000 Cu
0.600000 0.200000 0.600000 Cu
0.200000 0.000000 0.800000 Cu
0.800000 0.200000 0.200000 Cu
0.200000 0.600000 0.600000 Cu
0.600000 0.200000 0.400000 Cu
0.400000 0.600000 0.800000 Cu
0.200000 0.600000 0.000000 Cu
0.600000 0.000000 0.000000 Cu
0.200000 0.200000 0.400000 Cu
0.200000 0.800000 0.600000 Cu
0.400000 0.800000 0.200000 Cu
0.600000 0.600000 0.400000 Cu
0.000000 0.200000 0.800000 Cu
0.400000 0.400000 0.000000 Cu
0.200000 0.400000 0.600000 Cu
0.400000 0.600000 0.400000 Cu
0.400000 0.400000 0.400000 Cu
0.000000 0.000000 0.400000 Cu
0.400000 0.000000 0.000000 Cu
0.800000 0.000000 0.600000 Cu
0.000000 0.400000 0.600000 Cu
0.400000 0.400000 0.800000 Cu
0.800000 0.400000 0.000000 Cu
0.400000 0.200000 0.600000 Cu
0.000000 0.000000 0.600000 Cu
0.400000 0.200000 0.400000 Cu
0.000000 0.800000 0.200000 Cu
0.400000 0.200000 0.000000 Cu
0.600000 0.400000 0.800000 Cu
0.000000 0.600000 0.800000 Cu
0.400000 0.200000 0.200000 Cu
0.400000 0.800000 0.000000 Cu
0.200000 0.800000 0.000000 Cu
0.000000 0.400000 0.400000 Cu
0.400000 0.400000 0.200000 Cu
0.800000 0.600000 0.000000 Cu
0.800000 0.800000 0.200000 Cu
0.800000 0.200000 0.400000 Cu
0.800000 0.600000 0.600000 Cu
0.600000 0.800000 0.000000 Cu
