Zr6 Cu4
1.0
   6.9028087468621564    0.0000000000000000    0.0000000000000000
   0.0000000000000000    6.9028087468621564    0.0000000000000000
   0.0000000000000000    0.0000000000000000    6.9028087468621564
Cu Zr
4 6
direct
   0.6666666666666666    0.3333333333333333    0.0000000000000000 Cu
   0.0000000000000000    0.3333333333333333    0.6666666666666666 Cu
   0.3333333333333333    0.0000000000000000    0.6666666666666666 Cu
   0.0000000000000000    0.3333333333333333    0.3333333333333333 Cu
   0.0000000000000000    0.0000000000000000    0.0000000000000000 Zr
   0.6666666666666666    0.3333333333333333    0.3333333333333333 Zr
   0.6666666666666666    0.6666666666666666    0.6666666666666666 Zr
   0.3333333333333333    0.6666666666666666    0.3333333333333333 Zr
   0.3333333333333333    0.6666666666666666    0.0000000000000000 Zr
   0.6666666666666666    0.6666666666666666    0.0000000000000000 Zr
