Si64
1.0
8.800000 0.000000 0.000000
0.000000 8.800000 0.000000
0.000000 0.000000 8.800000
Si
64
direct
0.250000 0.750000 0.500000 Si
0.000000 0.500000 0.500000 Si
0.500000 0.000000 0.000000 Si
0.000000 0.500000 0.250000 Si
0.000000 0.500000 0.000000 Si
0.000000 0.750000 0.500000 Si
0.000000 0.250000 0.750000 Si
0.750000 0.500000 0.250000 Si
0.500000 0.750000 0.500000 Si
0.750000 0.000000 0.750000 Si
0.750000 0.750000 0.750000 Si
0.250000 0.500000 0.500000 Si
0.250000 0.500000 0.750000 Si
0.750000 0.000000 0.500000 Si
0.500000 0.000000 0.250000 Si
0.250000 0.750000 0.000000 Si
0.000000 0.000000 0.250000 Si
0.250000 0.750000 0.250000 Si
0.250000 0.000000 0.000000 Si
0.750000 0.250000 0.500000 Si
0.750000 0.750000 0.500000 Si
0.000000 0.750000 0.250000 Si
0.500000 0.500000 0.250000 Si
0.250000 0.750000 0.750000 Si
0.250000 0.250000 0.000000 Si
0.750000 0.250000 0.000000 Si
0.750000 0.750000 0.250000 Si
0.000000 0.000000 0.000000 Si
0.500000 0.750000 0.250000 Si
0.500000 0.750000 0.000000 Si
0.750000 0.500000 0.500000 Si
0.250000 0.500000 0.250000 Si
0.500000 0.250000 0.000000 Si
0.500000 0.250000 0.250000 Si
0.000000 0.750000 0.000000 Si
0.750000 0.500000 0.750000 Si
0.500000 0.500000 0.500000 Si
0.500000 0.500000 0.750000 Si
0.500000 0.750000 0.750000 Si
0.250000 0.500000 0.000000 Si
0.500000 0.500000 0.000000 Si
0.000000 0.250000 0.000000 Si
0.250000 0.000000 0.250000 Si
0.500000 0.000000 0.500000 Si
0.250000 0.250000 0.750000 Si
0.250000 0.250000 0.250000 Si
0.750000 0.750000 0.000000 Si
0.500000 0.000000 0.750000 Si
0.000000 0.000000 0.500000 Si
0.250000 0.000000 0.750000 Si
0.000000 0.500000 0.750000 Si
0.750000 0.250000 0.250000 Si
0.000000 0.250000 0.250000 Si
0.250000 0.000000 0.500000 Si
0.750000 0.500000 0.000000 Si
0.750000 0.250000 0.750000 Si
0.500000 0.250000 0.750000 Si
0.750000 0.000000 0.000000 Si
0.250000 0.250000 0.500000 Si
0.750000 0.000000 0.250000 Si
0.000000 0.000000 0.750000 Si
0.000000 0.750000 0.750000 Si
0.000000 0.250000 0.500000 Si
0.500000 0.250000 0.500000 Si
