Ca55 Mg10 Cu35
1.0
14.249121 0.000000 0.000000
0.000000 14.249121 0.000000
0.000000 0.000000 14.249121
Ca Mg Cu
55 10 35
direct
0.333333 0.444444 0.333333 Ca
0.333333 0.222222 0.333333 Ca
0.666667 0.777774 0.333333 Ca
0.333333 0.111111 0.222222 Ca
0.111111 0.777774 0.222222 Ca
0.666667 0.555554 0.111111 Ca
0.111111 0.888887 0.111111 Ca
0.777774 0.555554 0.222222 Ca
0.555554 0.111111 0.222222 Ca
1.000000 0.222222 0.333333 Ca
0.444444 0.777774 0.333333 Ca
0.444444 0.777774 0.111111 Ca
0.222222 0.111111 0.111111 Ca
0.222222 0.666667 0.222222 Ca
0.111111 0.333333 0.222222 Ca
0.333333 0.777774 0.222222 Ca
1.000000 0.222222 0.111111 Ca
0.777774 0.777774 0.222222 Ca
0.111111 0.111111 0.222222 Ca
0.444444 0.333333 0.333333 Ca
0.333333 0.666667 0.333333 Ca
0.555554 0.222222 0.111111 Ca
0.777774 0.888887 0.111111 Ca
0.111111 0.666667 0.111111 Ca
0.333333 0.888887 0.111111 Ca
0.444444 0.555554 0.111111 Ca
0.444444 0.111111 0.111111 Ca
1.000000 0.666667 0.111111 Ca
1.000000 0.555554 0.222222 Ca
0.555554 0.888887 0.111111 Ca
0.666667 0.444444 0.222222 Ca
0.777774 0.333333 0.222222 Ca
0.333333 0.444444 0.111111 Ca
0.666667 0.333333 0.333333 Ca
1.000000 0.444444 0.111111 Ca
0.888887 1.000000 0.111111 Ca
0.888887 0.555554 0.111111 Ca
0.888887 0.111111 0.333333 Ca
0.555554 0.444444 0.111111 Ca
0.111111 0.222222 0.333333 Ca
0.666667 0.666667 0.222222 Ca
0.333333 0.333333 0.222222 Ca
0.888887 0.444444 0.222222 Ca
0.888887 0.666667 0.222222 Ca
0.444444 1.000000 0.111111 Ca
0.555554 0.222222 0.333333 Ca
1.000000 0.111111 0.222222 Ca
0.444444 0.555554 0.333333 Ca
0.555554 0.555554 0.222222 Ca
0.555554 0.444444 0.333333 Ca
0.888887 0.333333 0.333333 Ca
0.111111 0.222222 0.111111 Ca
0.111111 0.444444 0.111111 Ca
0.222222 0.555554 0.111111 Ca
0.444444 0.333333 0.111111 Ca
0.888887 0.222222 0.222222 Mg
0.666667 0.777774 0.111111 Mg
0.111111 0.444444 0.333333 Mg
0.222222 0.222222 0.222222 Mg
0.666667 0.111111 0.333333 Mg
0.333333 0.555554 0.222222 Mg
0.222222 0.111111 0.333333 Mg
0.444444 0.111111 0.333333 Mg
0.222222 0.333333 0.111111 Mg
0.444444 0.222222 0.222222 Mg
0.777774 0.444444 0.333333 Cu
0.666667 0.333333 0.111111 Cu
0.888887 0.555554 0.333333 Cu
0.222222 0.555554 0.333333 Cu
0.111111 0.555554 0.222222 Cu
0.777774 0.222222 0.333333 Cu
0.666667 1.000000 0.111111 Cu
0.777774 0.444444 0.111111 Cu
0.888887 0.111111 0.111111 Cu
0.666667 0.222222 0.222222 Cu
1.000000 0.444444 0.333333 Cu
1.000000 0.333333 0.222222 Cu
0.555554 0.333333 0.222222 Cu
0.222222 0.777774 0.333333 Cu
0.333333 0.222222 0.111111 Cu
0.555554 0.666667 0.333333 Cu
0.111111 0.666667 0.333333 Cu
0.888887 0.333333 0.111111 Cu
0.666667 0.555554 0.333333 Cu
0.777774 0.111111 0.222222 Cu
0.444444 0.444444 0.222222 Cu
0.222222 0.444444 0.222222 Cu
0.222222 1.000000 0.111111 Cu
1.000000 0.888887 0.111111 Cu
0.555554 0.777774 0.222222 Cu
0.777774 0.666667 0.111111 Cu
0.888887 0.777774 0.111111 Cu
0.555554 0.666667 0.111111 Cu
0.222222 0.333333 0.333333 Cu
0.222222 0.777774 0.111111 Cu
0.777774 0.666667 0.333333 Cu
0.777774 0.222222 0.111111 Cu
0.444444 0.666667 0.222222 Cu
0.333333 0.666667 0.111111 Cu
0.666667 0.111111 0.111111 Cu
