Ca55 Mg10 Cu35
1.0
14.250000 0.000000 0.000000
0.000000 14.250000 0.000000
0.000000 0.000000 14.250000
Ca Mg Cu
55 10 35
direct
0.640444 0.398806 0.600789 Ca
0.959197 0.568886 0.069060 Ca
0.682758 0.054050 0.940850 Ca
0.627981 0.934852 0.043339 Ca
0.411452 0.019054 0.694620 Ca
0.528064 0.056896 0.885807 Ca
0.603937 0.158658 0.241325 Ca
0.099188 0.185352 0.861083 Ca
0.645864 0.501649 0.947353 Ca
0.505222 0.322074 0.739952 Ca
0.123005 0.745571 0.762950 Ca
0.841998 0.782020 0.256919 Ca
0.135463 0.833269 0.061073 Ca
0.309341 0.313351 0.035228 Ca
0.447257 0.563681 0.513755 Ca
0.635634 0.847295 0.173246 Ca
0.048410 0.796388 0.203762 Ca
0.787203 0.653822 0.554824 Ca
0.696229 0.520760 0.100773 Ca
0.550920 0.367525 0.899010 Ca
0.418772 0.431200 0.840311 Ca
0.076655 0.842414 0.902321 Ca
0.482764 0.941301 0.321295 Ca
0.633515 0.590512 0.529198 Ca
0.227084 0.080255 0.817340 Ca
0.840952 0.653956 0.113148 Ca
1.000000 0.371182 0.089013 Ca
0.907051 0.191479 0.779754 Ca
0.615981 0.807208 0.824146 Ca
0.021779 0.881265 0.753673 Ca
0.368872 0.876968 0.400957 Ca
0.252297 0.925253 0.106728 Ca
0.525289 0.782724 0.679865 Ca
0.413109 0.579481 0.802814 Ca
0.183297 0.704756 0.928478 Ca
0.745103 0.212033 0.687232 Ca
0.821577 0.042108 0.871255 Ca
0.357725 0.024885 0.164174 Ca
0.410255 0.218396 0.620956 Ca
0.658628 0.730323 0.292300 Ca
0.765278 0.473866 0.303359 Ca
0.401874 0.964481 0.543063 Ca
0.781345 0.821422 0.065141 Ca
0.171573 0.093023 0.139684 Ca
0.414398 0.263710 0.864372 Ca
0.581236 0.212738 0.889066 Ca
0.105501 0.511484 0.348173 Ca
0.442499 0.367483 0.158970 Ca
0.224754 0.470451 0.254414 Ca
0.908302 0.252014 0.975231 Ca
0.273820 0.541216 0.960610 Ca
0.099928 0.580585 0.838685 Ca
0.432731 0.422510 0.005126 Ca
0.380693 0.720096 0.198416 Ca
0.870560 0.169898 0.293364 Ca
0.084889 0.001341 0.648029 Mg
0.690331 0.748536 0.688008 Mg
0.408912 0.218430 0.159784 Mg
0.486639 0.148098 0.764430 Mg
0.250050 0.600009 0.148107 Mg
0.195672 0.321043 0.378958 Mg
0.878310 0.726658 0.457275 Mg
0.169096 0.930436 0.809792 Mg
0.818914 0.983940 0.577164 Mg
0.511049 0.100693 0.071147 Mg
0.253212 0.993367 0.665561 Cu
0.212921 0.272502 0.771690 Cu
0.535250 0.643516 0.724852 Cu
0.503574 0.233920 0.346285 Cu
0.175447 0.255109 0.103643 Cu
0.781299 0.513828 0.826736 Cu
0.043628 0.201658 0.013522 Cu
0.824157 0.485211 0.001232 Cu
0.278630 0.803175 0.783832 Cu
0.873637 0.635292 0.954141 Cu
0.926934 0.296049 0.606556 Cu
0.869444 0.360574 0.865421 Cu
0.282903 0.325455 0.205275 Cu
0.884852 0.797308 0.952270 Cu
0.665483 0.346942 0.788609 Cu
0.488989 0.901312 0.968226 Cu
0.142621 0.100120 0.533875 Cu
0.691498 0.704010 0.132062 Cu
0.278450 0.717459 0.054946 Cu
0.776418 0.931984 0.169341 Cu
0.990656 0.291641 0.302522 Cu
0.353086 0.183056 0.294644 Cu
0.138437 0.661914 0.271831 Cu
0.704173 0.066517 0.104551 Cu
0.825242 0.123868 0.015589 Cu
0.705268 0.288343 0.352568 Cu
0.629803 0.750149 0.539896 Cu
0.253008 0.860113 0.947108 Cu
0.919464 0.209712 0.121171 Cu
0.191097 0.447185 0.518632 Cu
0.317377 0.468819 0.614908 Cu
0.278105 0.488186 0.776724 Cu
0.437510 0.742333 0.900114 Cu
0.716659 0.210304 0.530149 Cu
0.262930 0.590939 0.536252 Cu
