Zr50 Al10 Cu40
1.0
11.900723 0.000000 0.000000
0.000000 11.900723 0.000000
0.000000 0.000000 11.900723
Zr Al Cu
50 10 40
direct
0.535250 0.643516 0.724852 Zr
0.253008 0.860113 0.947108 Zr
0.250050 0.600009 0.148107 Zr
0.026195 0.704379 0.528244 Zr
0.183297 0.704756 0.928478 Zr
0.282903 0.325455 0.205275 Zr
0.309341 0.313351 0.035228 Zr
0.873637 0.635292 0.954141 Zr
0.621810 0.780716 0.970319 Zr
0.940445 0.033642 0.697126 Zr
0.565742 0.840600 0.417239 Zr
0.465109 0.089541 0.249895 Zr
0.142581 0.935347 0.518927 Zr
0.851828 0.480641 0.157954 Zr
0.273820 0.541216 0.960610 Zr
0.602216 0.072430 0.401463 Zr
0.840952 0.653956 0.113148 Zr
0.021779 0.881265 0.753673 Zr
0.358384 0.688531 0.659100 Zr
0.237828 0.207390 0.920998 Zr
0.869444 0.360574 0.865421 Zr
0.224754 0.470451 0.254414 Zr
0.414708 0.071446 0.404602 Zr
0.156341 0.141703 0.697169 Zr
0.878310 0.726658 0.457275 Zr
0.368872 0.876968 0.400957 Zr
0.615981 0.807208 0.824146 Zr
0.447743 0.369948 0.589082 Zr
0.804362 0.339452 0.067700 Zr
0.212921 0.272502 0.771690 Zr
0.253212 0.993367 0.665561 Zr
0.841838 0.874073 0.756978 Zr
0.372689 0.107539 0.894320 Zr
0.870560 0.169898 0.293364 Zr
0.318494 0.729250 0.465966 Zr
0.185579 0.846280 0.351442 Zr
0.611874 0.521922 0.261083 Zr
0.608757 1.000000 0.211019 Zr
0.852495 0.068746 0.160028 Zr
0.732273 0.890539 0.932010 Zr
0.787203 0.653822 0.554824 Zr
0.765026 0.720672 0.856001 Zr
0.581236 0.212738 0.889066 Zr
0.807506 0.489099 0.629912 Zr
0.765278 0.473866 0.303359 Zr
0.889714 0.607118 0.329103 Zr
0.146805 0.029619 0.975058 Zr
0.841998 0.782020 0.256919 Zr
0.375525 0.835734 0.067101 Zr
0.032353 0.631806 0.705376 Zr
0.576647 0.275863 0.152565 Al
0.505222 0.322074 0.739952 Al
0.358932 0.985394 0.998079 Al
0.123005 0.745571 0.762950 Al
0.566343 0.027684 0.694589 Al
0.550459 0.934396 0.540672 Al
0.724431 0.790198 0.431550 Al
0.419496 0.529757 0.286962 Al
0.334581 0.941979 0.842597 Al
0.418772 0.431200 0.840311 Al
0.076454 0.548488 0.572026 Cu
0.012799 0.743019 0.356041 Cu
0.974881 0.034786 0.470552 Cu
0.540090 0.651840 0.197107 Cu
0.627981 0.934852 0.043339 Cu
0.801132 0.816494 0.589349 Cu
0.116626 0.664905 0.076649 Cu
0.704173 0.066517 0.104551 Cu
0.379051 0.243885 0.457997 Cu
0.719908 0.358334 0.939199 Cu
0.183692 0.578887 0.676570 Cu
0.401874 0.964481 0.543063 Cu
0.884852 0.797308 0.952270 Cu
0.201275 0.187795 0.256475 Cu
0.322842 0.156648 0.721742 Cu
0.618723 0.476591 0.407289 Cu
0.083088 0.529096 0.174267 Cu
0.696499 0.939752 0.482884 Cu
0.392866 0.870518 0.686594 Cu
0.410255 0.218396 0.620956 Cu
0.072841 0.169894 0.358496 Cu
0.099928 0.580585 0.838685 Cu
0.057689 0.210730 0.190181 Cu
0.395978 0.339063 0.317972 Cu
0.482764 0.941301 0.321295 Cu
0.985894 0.065161 0.277810 Cu
0.343617 0.399423 0.458473 Cu
0.705268 0.288343 0.352568 Cu
0.857873 0.143944 0.590204 Cu
0.442499 0.367483 0.158970 Cu
0.472928 0.486832 0.684750 Cu
0.038280 0.049867 0.812340 Cu
0.499027 0.379951 0.443387 Cu
0.966026 0.902837 0.604609 Cu
0.195672 0.321043 0.378958 Cu
0.514425 0.783021 0.084863 Cu
0.986600 0.566964 0.438068 Cu
0.640444 0.398806 0.600789 Cu
0.782594 0.083271 0.435241 Cu
0.488989 0.901312 0.968226 Cu
