MLIP output to VASP                     
   1.00000000000000     
    10.2114949999999993    0.0000000000000000    0.0000000000000000
     0.0000000000000000   10.2114949999999993    0.0000000000000000
     0.0000000000000000    0.0000000000000000   10.2114949999999993
   Si
   100
Direct
  0.8232921819968553  0.7685173424655289  0.0924128151656518
  0.8165413585376058  0.8999987758893297  0.9062458533251032
  0.6940070969040306  0.1401653724552574  0.4206333156898197
  0.7882575470095219  0.2201988053659107  0.8562076365899429
  0.3063516164871061  0.9908641193086822  0.4046975491835454
  0.6118399901287717  0.7994693235417571  0.8472683970368706
  0.4960750605077919  0.5782268903818704  0.4391182681869807
  0.5017160562679592  0.5461119062389983  0.2159035479134062
  0.5508676251616436  0.9637662261990059  0.2788456538440229
  0.0120095049745430  0.0017959172481596  0.8784276934963984
  0.1864413584886435  0.1904566373483974  0.4423996682170426
  0.8116404111249125  0.4181066533352862  0.4153748300322349
  0.9757587894818514  0.2200149929075010  0.7752795256718059
  0.7708045687727392  0.3184899958331258  0.6323176968700466
  0.8912937821543281  0.1834260311541058  0.5222743584558387
  0.0814771980008828  0.9942805632280098  0.4277235605560179
  0.0504834992329748  0.0808766982699396  0.6276168181054800
  0.1814317100483294  0.2654653407752718  0.9816633117873508
  0.4387793364242967  0.1972887417562248  0.3635118070370709
  0.6049925108909093  0.7318410281746210  0.2998750917470971
  0.5718811006615567  0.6893541053489258  0.0466519349027763
  0.9991755369806299  0.3886864753887664  0.6164527329250049
  0.6167172387588664  0.2492482246722929  0.9979924584989774
  0.3209949179821336  0.6548247832467240  0.3140874083569543
  0.8954893480337631  0.0779247309037530  0.3183205789162145
  0.0210009406066405  0.3754506073792356  0.1280743906744277
  0.1790025848320909  0.0458721274406955  0.0260085325410202
  0.0415357398696301  0.3540892885909486  0.3835418809880409
  0.2919749752607217  0.4385083672860830  0.0739128795538733
  0.6349526685367834  0.0726244296256340  0.8499627135889511
  0.6710581555394199  0.8979843793685447  0.4563570760207014
  0.1827167324666945  0.1315642812340414  0.8128141863654648
  0.2269278886196417  0.8197351122436061  0.0489320124036681
  0.0942111806351562  0.5838435018574657  0.4303882046654266
  0.2358874973742857  0.2986753653603103  0.2460343955512911
  0.0175546283869323  0.7997566467985351  0.9788680305871011
  0.4104239389041453  0.8155163372258443  0.1932864874340154
  0.7360196523623657  0.5839003985214717  0.2193305681489335
  0.0975048217719348  0.1314257119060400  0.2346765091693257
  0.4871051692235042  0.0532612511684150  0.0652495055816971
  0.7784951175121790  0.6515002945210284  0.9090562155688247
  0.4184050425525356  0.4965586331874050  0.6452172771959468
  0.9726116499102204  0.9536661380140714  0.1431024546356809
  0.8923595418692400  0.5851305807817582  0.5715422668277270
  0.4551223890331428  0.2842628821734721  0.5700694168679519
  0.2065897304948976  0.4824166294945087  0.6004852374701244
  0.8631672443652931  0.2600973706592455  0.2224094513095309
  0.6362339696587043  0.1457301795672450  0.6288818630376838
  0.4181678588688555  0.0734660301944032  0.8165522286403686
  0.7927497393868350  0.0746214927393112  0.0625838821837519
  0.3641572561118593  0.2968563369026782  0.7832809005929136
  0.1477612239931574  0.5034515514133844  0.2403579495460733
  0.2491358023482348  0.9279590304847645  0.8290125980573819
  0.9679094980705543  0.6144069012421767  0.8150260074553231
  0.4748577950633077  0.3241700652059265  0.1785008953145422
  0.0244415729528313  0.8385301074916072  0.7381788856577813
  0.0946706628167604  0.6504185724029625  0.6378882817843987
  0.7473481600882153  0.7023364355562052  0.4785860444528467
  0.1152174093998966  0.6098632962166661  0.0150176835027551
  0.6219868883057771  0.9375537078557059  0.6716025420371849
  0.6184023005446306  0.8969517196061858  0.0564538297281629
  0.3195886596428821  0.0937519922401151  0.6197891689708541
  0.6531284596427867  0.5007790729956767  0.5815383545700215
  0.1101603633943924  0.7280436410143665  0.2306334185151115
  0.4535576818085900  0.4620491906425030  0.9217363373335630
  0.1879260578397179  0.9276030591015285  0.2331247285534559
  0.9326043835892790  0.5765547552047963  0.2860444038801404
  0.1756200242961512  0.2706482253577960  0.6503372914543846
  0.8092055081063023  0.4491478475972457  0.7998055132965334
  0.7997251137076375  0.7697435096428080  0.7227309027718292
  0.5821962406092354  0.3069378186054053  0.7795299317093125
  0.2436610897816607  0.4706722179269534  0.8272844475759911
  0.1957071907688359  0.7044761810097313  0.8171651653357301
  0.5808457037877446  0.7159318983165548  0.6180079410507489
  0.6425996389363178  0.4862107850025907  0.0231450928585843
  0.4333489856284487  0.8025733744177543  0.4336119246006618
  0.4186013899042180  0.8444714510461040  0.9452185013066128
  0.3127830939544083  0.4435832363429668  0.4199892376189780
  0.9070335930243303  0.5520801802282591  0.0608797242715227
  0.6197671349787655  0.5580763639408346  0.7901783235461579
  0.5950374553383213  0.3614197529352978  0.4201990012236223
  0.1953312418994457  0.7922727279404214  0.4309255402857275
  0.8268107657106043  0.0189937908210283  0.7167250241027361
  0.3191517990264927  0.7047347131835267  0.6006783531696414
  0.3876577327805606  0.2294563136935395  0.9908861533007638
  0.6374004002352223  0.1611553450302807  0.2010801552564061
  0.3443313638208707  0.6416206441857923  0.0420723899879505
  0.8700221661960370  0.9638293903096482  0.5013447100546955
  0.4068435620837079  0.6490992748858062  0.8124725125948729
  0.7660707859133282  0.9217342808276356  0.2382217295312756
  0.5006668465293274  0.0222991834202517  0.4935841421848579
  0.6839667453198572  0.3792568081363186  0.2236730273089265
  0.4246133401622387  0.8634762098987494  0.6990292802376175
  0.8225833729537158  0.3586945887942932  0.0111705484848201
  0.9136637681358124  0.7878358653654516  0.3110711017338801
  0.9822241503325415  0.1770532130701739  0.0323333654866431
  0.0393567249457618  0.4103699801057559  0.9070552353010015
  0.9921800872448188  0.7975515827995778  0.5187744791531514
  0.1963674271005402  0.9120345257966633  0.6128610942863872
  0.3316727864039493  0.1022223484416358  0.1925456556557066
 
  0.00000000E+00  0.00000000E+00  0.00000000E+00
  0.00000000E+00  0.00000000E+00  0.00000000E+00
  0.00000000E+00  0.00000000E+00  0.00000000E+00
  0.00000000E+00  0.00000000E+00  0.00000000E+00
  0.00000000E+00  0.00000000E+00  0.00000000E+00
  0.00000000E+00  0.00000000E+00  0.00000000E+00
  0.00000000E+00  0.00000000E+00  0.00000000E+00
  0.00000000E+00  0.00000000E+00  0.00000000E+00
  0.00000000E+00  0.00000000E+00  0.00000000E+00
  0.00000000E+00  0.00000000E+00  0.00000000E+00
  0.00000000E+00  0.00000000E+00  0.00000000E+00
  0.00000000E+00  0.00000000E+00  0.00000000E+00
  0.00000000E+00  0.00000000E+00  0.00000000E+00
  0.00000000E+00  0.00000000E+00  0.00000000E+00
  0.00000000E+00  0.00000000E+00  0.00000000E+00
  0.00000000E+00  0.00000000E+00  0.00000000E+00
  0.00000000E+00  0.00000000E+00  0.00000000E+00
  0.00000000E+00  0.00000000E+00  0.00000000E+00
  0.00000000E+00  0.00000000E+00  0.00000000E+00
  0.00000000E+00  0.00000000E+00  0.00000000E+00
  0.00000000E+00  0.00000000E+00  0.00000000E+00
  0.00000000E+00  0.00000000E+00  0.00000000E+00
  0.00000000E+00  0.00000000E+00  0.00000000E+00
  0.00000000E+00  0.00000000E+00  0.00000000E+00
  0.00000000E+00  0.00000000E+00  0.00000000E+00
  0.00000000E+00  0.00000000E+00  0.00000000E+00
  0.00000000E+00  0.00000000E+00  0.00000000E+00
  0.00000000E+00  0.00000000E+00  0.00000000E+00
  0.00000000E+00  0.00000000E+00  0.00000000E+00
  0.00000000E+00  0.00000000E+00  0.00000000E+00
  0.00000000E+00  0.00000000E+00  0.00000000E+00
  0.00000000E+00  0.00000000E+00  0.00000000E+00
  0.00000000E+00  0.00000000E+00  0.00000000E+00
  0.00000000E+00  0.00000000E+00  0.00000000E+00
  0.00000000E+00  0.00000000E+00  0.00000000E+00
  0.00000000E+00  0.00000000E+00  0.00000000E+00
  0.00000000E+00  0.00000000E+00  0.00000000E+00
  0.00000000E+00  0.00000000E+00  0.00000000E+00
  0.00000000E+00  0.00000000E+00  0.00000000E+00
  0.00000000E+00  0.00000000E+00  0.00000000E+00
  0.00000000E+00  0.00000000E+00  0.00000000E+00
  0.00000000E+00  0.00000000E+00  0.00000000E+00
  0.00000000E+00  0.00000000E+00  0.00000000E+00
  0.00000000E+00  0.00000000E+00  0.00000000E+00
  0.00000000E+00  0.00000000E+00  0.00000000E+00
  0.00000000E+00  0.00000000E+00  0.00000000E+00
  0.00000000E+00  0.00000000E+00  0.00000000E+00
  0.00000000E+00  0.00000000E+00  0.00000000E+00
  0.00000000E+00  0.00000000E+00  0.00000000E+00
  0.00000000E+00  0.00000000E+00  0.00000000E+00
  0.00000000E+00  0.00000000E+00  0.00000000E+00
  0.00000000E+00  0.00000000E+00  0.00000000E+00
  0.00000000E+00  0.00000000E+00  0.00000000E+00
  0.00000000E+00  0.00000000E+00  0.00000000E+00
  0.00000000E+00  0.00000000E+00  0.00000000E+00
  0.00000000E+00  0.00000000E+00  0.00000000E+00
  0.00000000E+00  0.00000000E+00  0.00000000E+00
  0.00000000E+00  0.00000000E+00  0.00000000E+00
  0.00000000E+00  0.00000000E+00  0.00000000E+00
  0.00000000E+00  0.00000000E+00  0.00000000E+00
  0.00000000E+00  0.00000000E+00  0.00000000E+00
  0.00000000E+00  0.00000000E+00  0.00000000E+00
  0.00000000E+00  0.00000000E+00  0.00000000E+00
  0.00000000E+00  0.00000000E+00  0.00000000E+00
  0.00000000E+00  0.00000000E+00  0.00000000E+00
  0.00000000E+00  0.00000000E+00  0.00000000E+00
  0.00000000E+00  0.00000000E+00  0.00000000E+00
  0.00000000E+00  0.00000000E+00  0.00000000E+00
  0.00000000E+00  0.00000000E+00  0.00000000E+00
  0.00000000E+00  0.00000000E+00  0.00000000E+00
  0.00000000E+00  0.00000000E+00  0.00000000E+00
  0.00000000E+00  0.00000000E+00  0.00000000E+00
  0.00000000E+00  0.00000000E+00  0.00000000E+00
  0.00000000E+00  0.00000000E+00  0.00000000E+00
  0.00000000E+00  0.00000000E+00  0.00000000E+00
  0.00000000E+00  0.00000000E+00  0.00000000E+00
  0.00000000E+00  0.00000000E+00  0.00000000E+00
  0.00000000E+00  0.00000000E+00  0.00000000E+00
  0.00000000E+00  0.00000000E+00  0.00000000E+00
  0.00000000E+00  0.00000000E+00  0.00000000E+00
  0.00000000E+00  0.00000000E+00  0.00000000E+00
  0.00000000E+00  0.00000000E+00  0.00000000E+00
  0.00000000E+00  0.00000000E+00  0.00000000E+00
  0.00000000E+00  0.00000000E+00  0.00000000E+00
  0.00000000E+00  0.00000000E+00  0.00000000E+00
  0.00000000E+00  0.00000000E+00  0.00000000E+00
  0.00000000E+00  0.00000000E+00  0.00000000E+00
  0.00000000E+00  0.00000000E+00  0.00000000E+00
  0.00000000E+00  0.00000000E+00  0.00000000E+00
  0.00000000E+00  0.00000000E+00  0.00000000E+00
  0.00000000E+00  0.00000000E+00  0.00000000E+00
  0.00000000E+00  0.00000000E+00  0.00000000E+00
  0.00000000E+00  0.00000000E+00  0.00000000E+00
  0.00000000E+00  0.00000000E+00  0.00000000E+00
  0.00000000E+00  0.00000000E+00  0.00000000E+00
  0.00000000E+00  0.00000000E+00  0.00000000E+00
  0.00000000E+00  0.00000000E+00  0.00000000E+00
  0.00000000E+00  0.00000000E+00  0.00000000E+00
  0.00000000E+00  0.00000000E+00  0.00000000E+00
  0.00000000E+00  0.00000000E+00  0.00000000E+00
