MLIP output to VASP
1
                  10.211495                       0                       0
                          0               10.211495                       0
                          0                       0               10.211495
 100
cart
          8.407044000000001                7.847711                0.943673
                   8.338108       9.190333000000001                9.254125
                    7.08685                1.431298                4.295295
          8.049288000000001                2.248559                 8.74316
                   3.128308               10.118204                4.132567
                   6.247801                8.163777       8.651877000000001
                   5.065668                5.904561                4.484054
                   5.123271                5.576619                2.204698
                   5.625182       9.841494000000001                2.847431
                   0.122635               10.229834                 8.97006
                   1.903845                1.944847                4.517562
                   8.288062                4.269494                4.241598
                   9.963956                2.246682                7.916763
                   7.871067                3.252259                6.456909
                   9.101442                1.873054                5.333202
                   0.832004               10.153091                4.367697
                   0.515512      0.8258720000000001                6.408906
                   1.852689                2.710798                10.02425
                   4.480593                2.014613                3.711999
                   6.177878                7.473191                3.062173
                   5.839761                7.039336                0.476386
      -0.008418999999999999                 3.96907                6.294904
                   6.297605                2.545197               10.190995
                   3.277838                 6.68674                3.207302
                   9.144285                0.795728                3.250529
                   0.214451                3.833912                1.307831
                   1.827884                0.468423                0.265586
                   0.424142                3.615781                3.916536
                   2.981501                4.477826                0.754761
                   6.483816                0.741604                 8.67939
                   6.852507                9.169763                4.660088
                   1.865811                1.343468                8.300048
                   2.317273                8.370721                0.499669
                   0.962037                5.961915                4.394907
                   2.408764                3.049922                2.512379
                   0.179259       8.166710999999999                9.995706
                   4.191042                8.327641                1.973744
                   7.515861                5.962496                2.239693
         0.9956700000000001                1.342053                2.396398
                   4.974072      0.5438770000000001                0.666295
                   7.949599                6.652792                9.282823
                   4.272541                5.070606                6.588633
          9.931819000000001       9.738357000000001                 1.46129
                   9.112325                5.975058                5.836301
                    4.64748                2.902749                5.821261
                    2.10959                4.926195                6.131852
                   8.814228                2.655983                2.271133
                     6.4969                1.488123                6.421824
                   4.270119                0.750198                8.338219
                    8.09516                0.761997      0.6390749999999999
                    3.71859                3.031347                7.998469
                   1.508863                5.140993                2.454414
                   2.544049                9.475849                8.465458
                   9.883803                6.274013       8.322634000000001
                   4.849008                3.310261                1.822761
                   0.249585       8.562646000000001                 7.53791
         0.9667289999999999                6.641746                6.513793
                   7.631542                7.171905                4.887079
                   1.176542                6.227616                0.153353
                   6.351416       9.573824999999999                6.858066
                   6.314812       9.159217999999999                0.576478
                   3.263478                0.957348                6.328974
                   6.669418                5.113703                5.938376
                   1.124902                7.434414                2.355112
                   4.631502                4.718213       9.412305999999999
                   1.919006       9.472213999999999                2.380552
                   9.523285                5.887486                2.920941
                   1.793343                2.763723                6.640916
          8.263197999999999                4.586471       8.167210000000001
          8.166389000000001                7.860232                7.380163
                   5.945094                3.134294                7.960166
                   2.488144                4.806267                8.447811
                   1.998463                7.193755       8.344478000000001
                   5.931303                7.310735                6.310785
                   6.561903                4.964939                0.236346
                   4.425141       8.195474000000001                4.427826
                   4.274546       8.623316000000001                9.652094
                   3.193983                4.529648                4.288718
                   9.262169                5.637564                0.621673
                   6.328749                5.698794                8.068902
                   6.076222                3.690636                 4.29086
                   1.994624                8.090289                4.400394
                   8.442974                0.193955                7.318834
                   3.259017                7.196395                6.133824
                   3.958565                2.343092               10.118429
                   6.508811                1.645637                2.053329
                   3.516138                6.551906                0.429622
          8.884226999999999                9.842139                5.119479
                   4.154481                6.628274                8.296559
                   7.822728       9.412285000000001                  2.4326
                   5.112557                0.227708                5.040232
                   6.984323                3.872779                2.284036
                   4.335937                8.817383                7.138134
                   8.399806                3.662808                0.114068
          9.329872999999999       8.044981999999999                3.176501
                  10.029977                1.807978                0.330172
                   0.401891                4.190491                 9.26239
                  10.131642       8.144194000000001                5.297463
                   2.005205                9.313236                6.258228
                   3.386875                1.043843                1.966179
