Si                                      
   1.00000000000000     
    10.2114949999999993    0.0000000000000000    0.0000000000000000
     0.0000000000000000   10.2114949999999993    0.0000000000000000
     0.0000000000000000    0.0000000000000000   10.2114949999999993
   Si
   100
Direct
  0.8593949999999992  0.4040469999999985  0.3532420000000016
  0.4516479999999987  0.0835936000000004  0.3571250000000035
  0.8893890000000013  0.7931219999999968  0.8074250000000021
  0.9832850000000022  0.0746283000000005  0.6086090000000013
  0.6323119999999989  0.9681479999999993  0.6109519999999975
  0.2928199999999990  0.8191350000000028  0.7435580000000002
  0.6894109999999998  0.7075999999999993  0.6306020000000032
  0.5524180000000030  0.6291039999999981  0.0246424999999988
  0.8613969999999966  0.6031630000000021  0.2433180000000021
  0.3311599999999970  0.6820450000000022  0.5736610000000013
  0.1009870000000035  0.2248039999999989  0.1953269999999989
  0.3031379999999970  0.6890939999999972  0.3350069999999974
  0.9045210000000026  0.6453490000000031  0.6454319999999996
  0.2394409999999993  0.0459120000000013  0.2639780000000016
  0.8345059999999975  0.8901940000000010  0.6249880000000019
  0.1513459999999966  0.5877959999999973  0.9289929999999984
  0.2239440000000030  0.8705939999999970  0.4142769999999985
  0.0912178000000026  0.6700289999999995  0.2846460000000022
  0.8724879999999970  0.8328010000000035  0.2181399999999982
  0.5799659999999989  0.3292130000000029  0.5736940000000033
  0.5836320000000015  0.4048909999999992  0.9042839999999970
  0.0780925999999980  0.8840259999999986  0.5652249999999981
  0.2155550000000019  0.3504649999999998  0.0654360999999994
  0.5681039999999982  0.0220271000000025  0.9666009999999972
  0.6797260000000023  0.9939389999999975  0.3453510000000009
  0.5484569999999991  0.3341989999999981  0.1175479999999993
  0.1200589999999977  0.8108700000000013  0.9130540000000025
  0.0012800000000013  0.2253230000000030  0.8134840000000025
  0.2871650000000017  0.0049599999999970  0.9470790000000022
  0.8164069999999981  0.3434379999999990  0.5460319999999967
  0.9242589999999993  0.0338223999999983  0.1773299999999978
  0.2077439999999982  0.5832120000000032  0.1352910000000023
  0.6459830000000011  0.6839659999999981  0.2004689999999982
  0.1014509999999973  0.9770169999999965  0.0720795000000010
  0.0389047999999974  0.4300659999999965  0.2072649999999996
  0.7324270000000013  0.5581140000000033  0.4688640000000035
  0.2672870000000032  0.1467889999999983  0.6815190000000015
  0.7746300000000019  0.5407840000000022  0.0649507999999983
  0.0018558000000013  0.7082350000000019  0.0801463000000027
  0.7050679999999971  0.6097839999999977  0.8660720000000026
  0.0138987999999998  0.4037760000000006  0.9528290000000013
  0.7041380000000004  0.7760279999999966  0.4055800000000005
  0.4572209999999970  0.4099099999999964  0.3905590000000032
  0.2264339999999976  0.4799829999999972  0.3261669999999981
  0.5097930000000019  0.7990660000000034  0.5855940000000004
  0.4635249999999971  0.9721940000000018  0.7713400000000021
  0.8592039999999983  0.9352689999999981  0.4367140000000020
  0.7727250000000012  0.0661093000000008  0.7791029999999992
  0.3955569999999966  0.1807009999999991  0.8563529999999986
  0.1330529999999968  0.9714990000000014  0.7582099999999983
  0.4763009999999994  0.7608320000000006  0.1897179999999992
  0.1180820000000011  0.6640900000000016  0.4918559999999985
  0.1827749999999995  0.0802535999999989  0.4793189999999967
  0.1593879999999999  0.1760090000000005  0.9487459999999999
  0.4189620000000005  0.1996759999999966  0.0803407000000007
  0.5758510000000001  0.1689099999999968  0.7316890000000029
  0.6160610000000020  0.2568490000000025  0.3403029999999987
  0.9101720000000029  0.6903739999999985  0.4406979999999976
  0.3580079999999981  0.6702129999999968  0.0110993999999991
  0.3164349999999985  0.2944859999999991  0.2610669999999971
  0.6517539999999968  0.8615110000000001  0.8425450000000012
  0.4488860000000017  0.8382170000000002  0.9364369999999980
  0.5057509999999965  0.5416110000000032  0.5692319999999995
  0.6120269999999977  0.1249899999999968  0.1547300000000007
  0.5065629999999999  0.6752210000000005  0.7860420000000019
  0.3936840000000004  0.5114680000000007  0.1820120000000003
  0.2105140000000034  0.3630870000000002  0.8354500000000016
  0.9952630000000013  0.2568380000000019  0.5569660000000027
  0.1106619999999978  0.6960339999999974  0.6951800000000006
  0.8172300000000021  0.1921000000000035  0.3266139999999993
  0.4317610000000016  0.3575439999999972  0.7408479999999997
  0.7662989999999965  0.1207089999999980  0.5417369999999977
  0.0197478999999987  0.4797969999999978  0.5279189999999971
  0.6982280000000003  0.4780749999999969  0.6891139999999965
  0.7731709999999978  0.8078280000000007  0.9995809999999992
  0.2944219999999973  0.4705659999999980  0.5258540000000025
  0.2256149999999977  0.8273110000000017  0.1684089999999969
  0.9262829999999980  0.5936870000000027  0.9062109999999990
  0.3625260000000026  0.4463909999999984  0.9584109999999981
  0.7880030000000033  0.0464502999999965  0.0260934000000006
  0.9629040000000018  0.4280839999999984  0.7277399999999972
  0.2861660000000015  0.5601330000000004  0.7317609999999988
  0.1716809999999995  0.3318820000000002  0.6379919999999970
  0.3612740000000016  0.9858890000000002  0.5811330000000012
  0.0161463000000026  0.1380949999999999  0.3686399999999992
  0.7798820000000006  0.2720789999999980  0.7452589999999972
  0.4509189999999990  0.8670779999999993  0.3863070000000022
  0.9282139999999970  0.2358460000000022  0.0358895999999973
  0.6744750000000010  0.1992669999999990  0.9507830000000013
  0.3768490000000000  0.2402799999999985  0.5322389999999970
  0.7745310000000032  0.3322179999999975  0.1293659999999974
  0.5456319999999977  0.1134979999999999  0.5316609999999997
  0.3965639999999979  0.9752470000000031  0.1363389999999995
  0.6454129999999978  0.4724750000000029  0.2673789999999983
  0.9516720000000021  0.0279218000000014  0.9191440000000028
  0.1162259999999975  0.3327710000000010  0.4105619999999988
  0.6469349999999991  0.9075839999999999  0.1330170000000024
  0.5162369999999967  0.6171190000000024  0.3737759999999994
  0.8086589999999987  0.4136200000000017  0.8893759999999986
  0.0407751999999988  0.9069519999999969  0.3292730000000006
 
  0.00000000E+00  0.00000000E+00  0.00000000E+00
  0.00000000E+00  0.00000000E+00  0.00000000E+00
  0.00000000E+00  0.00000000E+00  0.00000000E+00
  0.00000000E+00  0.00000000E+00  0.00000000E+00
  0.00000000E+00  0.00000000E+00  0.00000000E+00
  0.00000000E+00  0.00000000E+00  0.00000000E+00
  0.00000000E+00  0.00000000E+00  0.00000000E+00
  0.00000000E+00  0.00000000E+00  0.00000000E+00
  0.00000000E+00  0.00000000E+00  0.00000000E+00
  0.00000000E+00  0.00000000E+00  0.00000000E+00
  0.00000000E+00  0.00000000E+00  0.00000000E+00
  0.00000000E+00  0.00000000E+00  0.00000000E+00
  0.00000000E+00  0.00000000E+00  0.00000000E+00
  0.00000000E+00  0.00000000E+00  0.00000000E+00
  0.00000000E+00  0.00000000E+00  0.00000000E+00
  0.00000000E+00  0.00000000E+00  0.00000000E+00
  0.00000000E+00  0.00000000E+00  0.00000000E+00
  0.00000000E+00  0.00000000E+00  0.00000000E+00
  0.00000000E+00  0.00000000E+00  0.00000000E+00
  0.00000000E+00  0.00000000E+00  0.00000000E+00
  0.00000000E+00  0.00000000E+00  0.00000000E+00
  0.00000000E+00  0.00000000E+00  0.00000000E+00
  0.00000000E+00  0.00000000E+00  0.00000000E+00
  0.00000000E+00  0.00000000E+00  0.00000000E+00
  0.00000000E+00  0.00000000E+00  0.00000000E+00
  0.00000000E+00  0.00000000E+00  0.00000000E+00
  0.00000000E+00  0.00000000E+00  0.00000000E+00
  0.00000000E+00  0.00000000E+00  0.00000000E+00
  0.00000000E+00  0.00000000E+00  0.00000000E+00
  0.00000000E+00  0.00000000E+00  0.00000000E+00
  0.00000000E+00  0.00000000E+00  0.00000000E+00
  0.00000000E+00  0.00000000E+00  0.00000000E+00
  0.00000000E+00  0.00000000E+00  0.00000000E+00
  0.00000000E+00  0.00000000E+00  0.00000000E+00
  0.00000000E+00  0.00000000E+00  0.00000000E+00
  0.00000000E+00  0.00000000E+00  0.00000000E+00
  0.00000000E+00  0.00000000E+00  0.00000000E+00
  0.00000000E+00  0.00000000E+00  0.00000000E+00
  0.00000000E+00  0.00000000E+00  0.00000000E+00
  0.00000000E+00  0.00000000E+00  0.00000000E+00
  0.00000000E+00  0.00000000E+00  0.00000000E+00
  0.00000000E+00  0.00000000E+00  0.00000000E+00
  0.00000000E+00  0.00000000E+00  0.00000000E+00
  0.00000000E+00  0.00000000E+00  0.00000000E+00
  0.00000000E+00  0.00000000E+00  0.00000000E+00
  0.00000000E+00  0.00000000E+00  0.00000000E+00
  0.00000000E+00  0.00000000E+00  0.00000000E+00
  0.00000000E+00  0.00000000E+00  0.00000000E+00
  0.00000000E+00  0.00000000E+00  0.00000000E+00
  0.00000000E+00  0.00000000E+00  0.00000000E+00
  0.00000000E+00  0.00000000E+00  0.00000000E+00
  0.00000000E+00  0.00000000E+00  0.00000000E+00
  0.00000000E+00  0.00000000E+00  0.00000000E+00
  0.00000000E+00  0.00000000E+00  0.00000000E+00
  0.00000000E+00  0.00000000E+00  0.00000000E+00
  0.00000000E+00  0.00000000E+00  0.00000000E+00
  0.00000000E+00  0.00000000E+00  0.00000000E+00
  0.00000000E+00  0.00000000E+00  0.00000000E+00
  0.00000000E+00  0.00000000E+00  0.00000000E+00
  0.00000000E+00  0.00000000E+00  0.00000000E+00
  0.00000000E+00  0.00000000E+00  0.00000000E+00
  0.00000000E+00  0.00000000E+00  0.00000000E+00
  0.00000000E+00  0.00000000E+00  0.00000000E+00
  0.00000000E+00  0.00000000E+00  0.00000000E+00
  0.00000000E+00  0.00000000E+00  0.00000000E+00
  0.00000000E+00  0.00000000E+00  0.00000000E+00
  0.00000000E+00  0.00000000E+00  0.00000000E+00
  0.00000000E+00  0.00000000E+00  0.00000000E+00
  0.00000000E+00  0.00000000E+00  0.00000000E+00
  0.00000000E+00  0.00000000E+00  0.00000000E+00
  0.00000000E+00  0.00000000E+00  0.00000000E+00
  0.00000000E+00  0.00000000E+00  0.00000000E+00
  0.00000000E+00  0.00000000E+00  0.00000000E+00
  0.00000000E+00  0.00000000E+00  0.00000000E+00
  0.00000000E+00  0.00000000E+00  0.00000000E+00
  0.00000000E+00  0.00000000E+00  0.00000000E+00
  0.00000000E+00  0.00000000E+00  0.00000000E+00
  0.00000000E+00  0.00000000E+00  0.00000000E+00
  0.00000000E+00  0.00000000E+00  0.00000000E+00
  0.00000000E+00  0.00000000E+00  0.00000000E+00
  0.00000000E+00  0.00000000E+00  0.00000000E+00
  0.00000000E+00  0.00000000E+00  0.00000000E+00
  0.00000000E+00  0.00000000E+00  0.00000000E+00
  0.00000000E+00  0.00000000E+00  0.00000000E+00
  0.00000000E+00  0.00000000E+00  0.00000000E+00
  0.00000000E+00  0.00000000E+00  0.00000000E+00
  0.00000000E+00  0.00000000E+00  0.00000000E+00
  0.00000000E+00  0.00000000E+00  0.00000000E+00
  0.00000000E+00  0.00000000E+00  0.00000000E+00
  0.00000000E+00  0.00000000E+00  0.00000000E+00
  0.00000000E+00  0.00000000E+00  0.00000000E+00
  0.00000000E+00  0.00000000E+00  0.00000000E+00
  0.00000000E+00  0.00000000E+00  0.00000000E+00
  0.00000000E+00  0.00000000E+00  0.00000000E+00
  0.00000000E+00  0.00000000E+00  0.00000000E+00
  0.00000000E+00  0.00000000E+00  0.00000000E+00
  0.00000000E+00  0.00000000E+00  0.00000000E+00
  0.00000000E+00  0.00000000E+00  0.00000000E+00
  0.00000000E+00  0.00000000E+00  0.00000000E+00
  0.00000000E+00  0.00000000E+00  0.00000000E+00
