Si 
 1.0000000000000000
    10.2114949999999993    0.0000000000000000    0.0000000000000000
     0.0000000000000000   10.2114949999999993    0.0000000000000000
     0.0000000000000000    0.0000000000000000   10.2114949999999993
 100
Cartesian
  8.7757077455249988  4.1259239202649995  3.6071289167899998
  4.6120012937599997  0.8536156284320000  3.6467801518749998
  9.0819913265549985  8.0989613373899996  8.2450163503749998
 10.0408098610749992  0.7620665123084999  6.2148077604549989
  6.4568508264399993  9.8862384612599996  6.2387332932400001
  2.9901299659000000  8.3645929568249997  7.5928387992099999
  7.0399169794449996  7.2256538619999997  6.4393891699899992
  5.6410136449099992  6.4240923504799996  0.2516367655375000
  8.7961511585149985  6.1591959586849994  2.4846405404100000
  3.3816386841999999  6.9646991072750000  5.8579364331949995
  1.0312282455649999  2.2955849219799997  1.9945806838650000
  3.0954921713100001  7.0366799355299996  3.4209223054650000
  9.2365116688950000  6.5899780867549991  6.5908256408399994
  2.4450505742949997  0.4688301584400000  2.6956100271099999
  8.5215538464699989  9.0902115800299992  6.3820618370599993
  1.5454689222700000  6.0022759150199994  9.4864073745349984
  2.2868030362799998  8.8900662780299999  4.2303875141149998
  0.9314701086110000  6.8419977833549996  2.9066612057699999
  8.9094068495599998  8.5041432474949996  2.2275355192999999
  5.9223199091699996  3.3617569034349994  5.8582734125300000
  5.9597552498399997  4.1345424220449996  9.2340915445800000
  0.7974421944369999  9.0272270788699984  5.7717922613749995
  2.2011388047249998  3.5787715951750001  0.6682004079695000
  5.8011911554799998  0.2249296215145000  9.8704412784949991
  6.9410186503700002 10.1496031288049995  3.5265500097449998
  5.6005659132149992  3.4126714175049999  1.2003408142599998
  1.2259818782049998  8.2801949506499994  9.3236463557300002
 10.2245657135999988  2.3008846878850000  8.3068877985800000
  2.9323839616749998 10.2621440152000005  9.6710924731049985
  8.3367359984649987  3.5070154198100001  5.5758030378399992
  9.4380661572050002  0.3453772684880000  1.8108044083499997
  2.1213768172799998  5.9554664219399989  1.3815233700449998
  6.5964521745849991  6.9843153891699989  2.0470881911549998
  1.0359663792450000  9.9768042104149988  0.7360394538525000
  0.3972761706760000  4.3916168086699994  2.1164855111750001
  7.4791746483650003  5.6991783204299997  4.7878023916799997
  2.7293998640649999  1.4989351395549999  6.9593278609049998
  7.9101303718500002  5.5222131120800002  0.6632447694460000
  0.0189504924210000  7.2321381613249986  0.8184135417185000
  7.1997983566599997  6.2268062670799997  8.8438898976399987
  0.1419275267060000  4.1231566051200002  9.7298085693549989
  7.1903016663099999  7.9244060418600002  4.1415781420999993
  4.6689099553949998  4.1857939154499997  3.9881912757049998
  2.3122296588299998  4.9013440045849999  3.3306526896649995
  5.2057486705349998  8.1596584636700005  5.9797902030299994
  4.7332832198750001  9.9275541700299996  7.8765345533000000
  8.7737573499799986  9.5504947171549990  4.4595028274299997
  7.8906774738749998  0.6750747864034999  7.9558063889849997
  4.0392283277149996  1.8452273579949998  8.7446443777349998
  1.3586700442349999  9.9204571810050002  7.7424576239500000
  4.8637452799949994  7.7692321638399990  1.9373044084100000
  1.2057937525900000  6.7813517145499995  5.0225850847200002
  1.8664059986249999  0.8195092351319999  4.8945635719049996
  1.6275897650600000  1.7973150234549999  9.6881150352699983
  4.2782283681899997  2.0389904756199999  0.8203986563465000
  5.8802996072450000  1.7248236204500000  7.4716385650549997
  6.2909038211949992  2.6228122792549997  3.4750023829850001
  9.2942168271399996  7.0497506491299999  4.5001854235099996
  3.6557969019599996  6.8438766984349986  0.1133414676030000
  3.2312744203250001  3.0071423165700000  2.6658843651649997
  6.6553827122299989  8.7973152689449989  8.6036440547749997
  4.5837971445700001  8.5594487044149989  9.5624217433149994
  5.1644738077449990  5.5306580184449992  5.8127097218399992
  6.2497106503649995  1.2763347600499999  1.5800246213500000
  5.1727655416849991  6.8950158653949991  8.0266639527899990
  4.0201021975799991  5.2228529246599997  1.8586146279400000
  2.1496626584300000  3.7076610850649998  8.5311934977499995
 10.1631231481849991  2.6226999528100001  5.6874555241699989
  1.1300244596900000  7.1075477108299996  7.0988270940999998
  8.3451400588499993  1.9616281894999998  3.3352172279299999
  4.4089252926949998  3.6510587682799995  7.5651656477599989
  7.8250584070049989  1.2326193499549998  5.5319446668149999
  0.2016555821105000  4.8994446665149995  5.3908422289050000
  7.1299517308599993  4.8818604721250001  7.0368841654299992
  7.8952318006450000  8.2491315828599987 10.2072163835950001
  3.0064887808899998  4.8051823561699996  5.3697554917300003
  2.3038664444250001  8.4480821399449990  1.7197076614550000
  9.4587342230849991  6.0624318320649992  9.2537690954449996
  3.7019324363699999  4.5583194645449998  9.7868091344449990
  8.0466886944849989  0.4743270061985000  0.2664526236330000
  9.8326893814799998  4.3713776255800001  7.4313133712999999
  2.9221826781699995  5.7197953288349996  7.4723737926949996
  1.7531196730949998  3.3890113835899998  6.5148521180399994
  3.6891476446299998 10.0674005940550000  5.9342367238349993
  0.1648778617185000  1.4101564020249999  3.7643655167999999
  7.9637611435899993  2.7783333481049999  7.6102085522049991
  4.6045571139049999  8.8541626616099993  3.9447719989649999
  9.4784526199299997  2.4083402497699997  0.3664864709520000
  6.8873980901250000  2.0348139741650000  9.7089158505849991
  3.8481916792549997  2.4536180185999998  5.4349558873049997
  7.9091194338449995  3.3924424459100000  1.3210202621700000
  5.5717184398399997  1.1589842595099999  5.4290536431950001
  4.0495113031800001  9.9587298642649991  1.3922250168049999
  6.5906316224349997  4.8246761001249991  2.7303393216049998
  9.7179938696399990  0.2851233210910000  9.3858343602799987
  1.1868412178699999  3.3980894026449997  4.1924518101899997
  6.6061735178249998  9.2677894780799992  1.3583024304149998
  5.2715515443149989  6.3017075829049993  3.8168117551199998
  8.2576173352049995  4.2236785618999999  9.0818585771200002
  0.4163757509239999  9.2613358132399988  3.3623695931349995
