Si                                      
   1.00000000000000     
    10.2114949999999993    0.0000000000000000    0.0000000000000000
     0.0000000000000000   10.2114949999999993    0.0000000000000000
     0.0000000000000000    0.0000000000000000   10.2114949999999993
   Si
   100
Direct
  0.0103685999999996  0.1942599999999999  0.0422944999999970
  0.2119580000000028  0.7162429999999986  0.5244089999999986
  0.5743780000000029  0.8203749999999985  0.8781979999999976
  0.2020020000000002  0.4011619999999994  0.3223229999999973
  0.2030170000000027  0.1889189999999985  0.4359430000000017
  0.6282530000000008  0.3285430000000034  0.2343529999999987
  0.5581779999999981  0.4349789999999985  0.4331549999999993
  0.7902619999999985  0.3790369999999967  0.9774949999999976
  0.8536739999999980  0.3148240000000015  0.1701249999999987
  0.9452380000000034  0.5236110000000025  0.4533970000000025
  0.8631740000000008  0.6523540000000025  0.2904389999999992
  0.4028729999999996  0.2883119999999977  0.2804610000000025
  0.7610529999999969  0.0190000999999995  0.4267350000000008
  0.6410229999999970  0.9450599999999980  0.1052460000000011
  0.8727739999999997  0.8706719999999990  0.0336540999999997
  0.2101490000000013  0.8281640000000010  0.0844821999999965
  0.0801963999999984  0.8546229999999966  0.6756209999999996
  0.6072270000000017  0.0551326000000003  0.8901139999999970
  0.9099849999999989  0.5985360000000028  0.0595697999999985
  0.6229299999999967  0.0959458000000026  0.2761160000000018
  0.0290693999999974  0.7514159999999990  0.2004000000000019
  0.5116420000000019  0.6367210000000014  0.8099380000000025
  0.8673160000000024  0.9257849999999976  0.6069910000000007
  0.9175370000000029  0.5087410000000006  0.8603919999999974
  0.5806770000000014  0.8367009999999979  0.6412350000000018
  0.7195639999999983  0.7397350000000031  0.1205459999999974
  0.5336879999999979  0.6366709999999998  0.5588860000000011
  0.7802890000000033  0.8880369999999971  0.8290590000000009
  0.4051749999999998  0.1425780000000003  0.8951470000000015
  0.3760049999999993  0.7957109999999972  0.6532109999999989
  0.0438741999999976  0.9685040000000029  0.1406759999999991
  0.4141759999999977  0.9217299999999966  0.0018285599999999
  0.1773290000000003  0.8461119999999980  0.3322989999999990
  0.6088230000000010  0.8692240000000027  0.3071979999999996
  0.5729150000000018  0.2080729999999988  0.6935250000000011
  0.5113229999999973  0.4090029999999985  0.6840990000000033
  0.1559939999999997  0.4973239999999990  0.5468380000000010
  0.9234170000000006  0.3869880000000023  0.6587120000000013
  0.5362089999999995  0.5298370000000006  0.9987449999999995
  0.2252659999999977  0.0464557999999968  0.2357930000000010
  0.0204103000000018  0.4109150000000028  0.0234485000000006
  0.3323350000000005  0.5435379999999981  0.6558879999999974
  0.7716929999999991  0.7720359999999999  0.4587679999999992
  0.7372689999999977  0.6579559999999987  0.9097659999999976
  0.2899230000000017  0.6469140000000024  0.1997259999999983
  0.4397280000000023  0.1051810000000017  0.1440410000000014
  0.4287459999999967  0.7908649999999966  0.4328069999999968
  0.2157819999999973  0.6659909999999982  0.7830060000000003
  0.4766090000000034  0.4982919999999993  0.2086070000000007
  0.0148519999999976  0.3093959999999996  0.4517250000000033
  0.1324520000000007  0.4435879999999983  0.7965179999999989
  0.3545719999999974  0.5647779999999969  0.4103440000000020
  0.9902700000000024  0.2773880000000020  0.8394630000000021
  0.2246409999999983  0.0632810000000035  0.0137746999999990
  0.7740239999999972  0.2342030000000008  0.7811700000000030
  0.1286839999999998  0.2800670000000025  0.6240999999999985
  0.6378869999999992  0.2031160000000014  0.0613890999999995
  0.1339880000000022  0.6176389999999969  0.3509189999999975
  0.0790752999999995  0.0708653000000012  0.5823409999999996
  0.7759100000000032  0.7227689999999996  0.6841119999999989
  0.6007079999999974  0.3360669999999999  0.8805800000000019
  0.9431099999999972  0.7342900000000014  0.8518919999999994
  0.4339439999999968  0.9872939999999986  0.7396529999999970
  0.9709220000000016  0.9900670000000034  0.4092079999999996
  0.3925630000000027  0.8836569999999995  0.2329930000000004
  0.3427039999999977  0.4731200000000015  0.9038660000000007
  0.2607709999999983  0.8846920000000011  0.8405479999999983
  0.0065172199999992  0.1764229999999998  0.2730450000000033
  0.5471530000000016  0.0046334700000017  0.4968069999999969
  0.5076439999999991  0.7258939999999967  0.1434190000000015
  0.8729340000000008  0.1544900000000027  0.5622770000000017
  0.7128220000000027  0.5207520000000017  0.1448260000000019
  0.3523890000000023  0.6940990000000014  0.9743890000000022
  0.7627659999999992  0.2357650000000007  0.3845499999999973
  0.8270819999999972  0.0949227999999991  0.1621390000000034
  0.3518070000000009  0.3518789999999967  0.5053490000000025
  0.6916739999999990  0.0425802000000033  0.6630930000000035
  0.3116070000000022  0.3056150000000031  0.7537499999999966
  0.7062510000000017  0.4981009999999984  0.7606210000000004
  0.4430520000000016  0.3037149999999968  0.0548756999999966
  0.2081289999999996  0.2776649999999989  0.9500799999999998
  0.9451949999999982  0.0454265999999990  0.7695580000000035
  0.9935210000000012  0.6158390000000011  0.6808210000000017
  0.5381769999999975  0.2100560000000016  0.4728700000000003
  0.0693600999999973  0.9207150000000013  0.9105240000000023
  0.8534250000000014  0.8744670000000028  0.2640370000000019
  0.7119789999999995  0.3248439999999988  0.5768979999999999
  0.1228550000000013  0.6256619999999984  0.9965120000000027
  0.3435940000000031  0.1561540000000008  0.6008080000000007
  0.1660779999999988  0.1042660000000026  0.7873579999999976
  0.7353439999999978  0.5556809999999999  0.5533509999999993
  0.0061293300000003  0.7611709999999974  0.4849919999999983
  0.1911679999999976  0.2500339999999994  0.1698680000000010
  0.2497290000000021  0.9560590000000033  0.5122539999999987
  0.7664990000000032  0.4607790000000023  0.3580290000000019
  0.3939019999999971  0.0670880999999994  0.3619109999999992
  0.8213739999999987  0.0838322000000034  0.9473989999999972
  0.6071889999999982  0.6500460000000032  0.3322560000000010
  0.0024233700000025  0.4630409999999969  0.2476849999999970
  0.2376569999999987  0.4652409999999989  0.1033439999999999
 
  0.00000000E+00  0.00000000E+00  0.00000000E+00
  0.00000000E+00  0.00000000E+00  0.00000000E+00
  0.00000000E+00  0.00000000E+00  0.00000000E+00
  0.00000000E+00  0.00000000E+00  0.00000000E+00
  0.00000000E+00  0.00000000E+00  0.00000000E+00
  0.00000000E+00  0.00000000E+00  0.00000000E+00
  0.00000000E+00  0.00000000E+00  0.00000000E+00
  0.00000000E+00  0.00000000E+00  0.00000000E+00
  0.00000000E+00  0.00000000E+00  0.00000000E+00
  0.00000000E+00  0.00000000E+00  0.00000000E+00
  0.00000000E+00  0.00000000E+00  0.00000000E+00
  0.00000000E+00  0.00000000E+00  0.00000000E+00
  0.00000000E+00  0.00000000E+00  0.00000000E+00
  0.00000000E+00  0.00000000E+00  0.00000000E+00
  0.00000000E+00  0.00000000E+00  0.00000000E+00
  0.00000000E+00  0.00000000E+00  0.00000000E+00
  0.00000000E+00  0.00000000E+00  0.00000000E+00
  0.00000000E+00  0.00000000E+00  0.00000000E+00
  0.00000000E+00  0.00000000E+00  0.00000000E+00
  0.00000000E+00  0.00000000E+00  0.00000000E+00
  0.00000000E+00  0.00000000E+00  0.00000000E+00
  0.00000000E+00  0.00000000E+00  0.00000000E+00
  0.00000000E+00  0.00000000E+00  0.00000000E+00
  0.00000000E+00  0.00000000E+00  0.00000000E+00
  0.00000000E+00  0.00000000E+00  0.00000000E+00
  0.00000000E+00  0.00000000E+00  0.00000000E+00
  0.00000000E+00  0.00000000E+00  0.00000000E+00
  0.00000000E+00  0.00000000E+00  0.00000000E+00
  0.00000000E+00  0.00000000E+00  0.00000000E+00
  0.00000000E+00  0.00000000E+00  0.00000000E+00
  0.00000000E+00  0.00000000E+00  0.00000000E+00
  0.00000000E+00  0.00000000E+00  0.00000000E+00
  0.00000000E+00  0.00000000E+00  0.00000000E+00
  0.00000000E+00  0.00000000E+00  0.00000000E+00
  0.00000000E+00  0.00000000E+00  0.00000000E+00
  0.00000000E+00  0.00000000E+00  0.00000000E+00
  0.00000000E+00  0.00000000E+00  0.00000000E+00
  0.00000000E+00  0.00000000E+00  0.00000000E+00
  0.00000000E+00  0.00000000E+00  0.00000000E+00
  0.00000000E+00  0.00000000E+00  0.00000000E+00
  0.00000000E+00  0.00000000E+00  0.00000000E+00
  0.00000000E+00  0.00000000E+00  0.00000000E+00
  0.00000000E+00  0.00000000E+00  0.00000000E+00
  0.00000000E+00  0.00000000E+00  0.00000000E+00
  0.00000000E+00  0.00000000E+00  0.00000000E+00
  0.00000000E+00  0.00000000E+00  0.00000000E+00
  0.00000000E+00  0.00000000E+00  0.00000000E+00
  0.00000000E+00  0.00000000E+00  0.00000000E+00
  0.00000000E+00  0.00000000E+00  0.00000000E+00
  0.00000000E+00  0.00000000E+00  0.00000000E+00
  0.00000000E+00  0.00000000E+00  0.00000000E+00
  0.00000000E+00  0.00000000E+00  0.00000000E+00
  0.00000000E+00  0.00000000E+00  0.00000000E+00
  0.00000000E+00  0.00000000E+00  0.00000000E+00
  0.00000000E+00  0.00000000E+00  0.00000000E+00
  0.00000000E+00  0.00000000E+00  0.00000000E+00
  0.00000000E+00  0.00000000E+00  0.00000000E+00
  0.00000000E+00  0.00000000E+00  0.00000000E+00
  0.00000000E+00  0.00000000E+00  0.00000000E+00
  0.00000000E+00  0.00000000E+00  0.00000000E+00
  0.00000000E+00  0.00000000E+00  0.00000000E+00
  0.00000000E+00  0.00000000E+00  0.00000000E+00
  0.00000000E+00  0.00000000E+00  0.00000000E+00
  0.00000000E+00  0.00000000E+00  0.00000000E+00
  0.00000000E+00  0.00000000E+00  0.00000000E+00
  0.00000000E+00  0.00000000E+00  0.00000000E+00
  0.00000000E+00  0.00000000E+00  0.00000000E+00
  0.00000000E+00  0.00000000E+00  0.00000000E+00
  0.00000000E+00  0.00000000E+00  0.00000000E+00
  0.00000000E+00  0.00000000E+00  0.00000000E+00
  0.00000000E+00  0.00000000E+00  0.00000000E+00
  0.00000000E+00  0.00000000E+00  0.00000000E+00
  0.00000000E+00  0.00000000E+00  0.00000000E+00
  0.00000000E+00  0.00000000E+00  0.00000000E+00
  0.00000000E+00  0.00000000E+00  0.00000000E+00
  0.00000000E+00  0.00000000E+00  0.00000000E+00
  0.00000000E+00  0.00000000E+00  0.00000000E+00
  0.00000000E+00  0.00000000E+00  0.00000000E+00
  0.00000000E+00  0.00000000E+00  0.00000000E+00
  0.00000000E+00  0.00000000E+00  0.00000000E+00
  0.00000000E+00  0.00000000E+00  0.00000000E+00
  0.00000000E+00  0.00000000E+00  0.00000000E+00
  0.00000000E+00  0.00000000E+00  0.00000000E+00
  0.00000000E+00  0.00000000E+00  0.00000000E+00
  0.00000000E+00  0.00000000E+00  0.00000000E+00
  0.00000000E+00  0.00000000E+00  0.00000000E+00
  0.00000000E+00  0.00000000E+00  0.00000000E+00
  0.00000000E+00  0.00000000E+00  0.00000000E+00
  0.00000000E+00  0.00000000E+00  0.00000000E+00
  0.00000000E+00  0.00000000E+00  0.00000000E+00
  0.00000000E+00  0.00000000E+00  0.00000000E+00
  0.00000000E+00  0.00000000E+00  0.00000000E+00
  0.00000000E+00  0.00000000E+00  0.00000000E+00
  0.00000000E+00  0.00000000E+00  0.00000000E+00
  0.00000000E+00  0.00000000E+00  0.00000000E+00
  0.00000000E+00  0.00000000E+00  0.00000000E+00
  0.00000000E+00  0.00000000E+00  0.00000000E+00
  0.00000000E+00  0.00000000E+00  0.00000000E+00
  0.00000000E+00  0.00000000E+00  0.00000000E+00
  0.00000000E+00  0.00000000E+00  0.00000000E+00
