Si 
 1.0000000000000000
    10.2114949999999993    0.0000000000000000    0.0000000000000000
     0.0000000000000000   10.2114949999999993    0.0000000000000000
     0.0000000000000000    0.0000000000000000   10.2114949999999993
 100
Cartesian
  0.1058789070570000  1.9836850186999997  0.4318900752775000
  2.1644080572099997  7.3139118132849994  5.3549998814549999
  5.8652580751099999  8.3772552106249982  8.9677144860099993
  2.0627424129899996  4.0964637571899996  3.2913997028850002
  2.0731070804149998  1.9291454239049999  4.4516297647850003
  6.4154023682349992  3.3549152017849995  2.3930944877350000
  5.6998318561099994  4.4417858836050002  4.4231601167249996
  8.0697564616899999  3.8705344303149998  9.9816853050249996
  8.7172877826300006  3.2148237018799999  1.7372305868749998
  9.6522931108099996  5.3468511084450006  4.6298611985150000
  8.8142969851299995  6.6615096092299995  2.9658163963049997
  4.1139356251349994  2.9440965464400000  2.8639260991950000
  7.7714889042349995  0.1940194261495000  4.3576023188249993
  6.5458031593849997  9.6504754646999995  1.0747190027700000
  8.9123273371299998  8.8908627746399986  0.3436586738794999
  2.1459354627549998  8.4567925451799990  0.8626895628889999
  0.8189251376180000  8.7269784913849993  6.8991004633949995
  6.2006954743649993  0.5629862692369999  9.0893946604299991
  9.2923072775750004  6.1119473713199994  0.6082967148509999
  6.3610465803499991  0.9797500569709999  2.8195571534199995
  0.2968420327530000  7.6730807269199994  2.0463835979999998
  5.2246297247899998  6.5018733078949991  8.2706778373100001
  8.8565929974199999  9.4536488985749987  6.1982855615449992
  9.3694244878149995  5.1950061777949994  8.7858886060400003
  5.9295802821149994  8.5439680779950002  6.5479679963249993
  7.3478241881799997  7.5538002538250000  1.2309548762700000
  5.4497523435600002  6.5013627331449992  5.7070615945699998
  7.9679172220549992  9.0681853853149992  8.4659318332049995
  4.1374424866249999  1.4559345341100001  9.1407891147649991
  3.8395731774749997  8.1253988979449989  6.6702608604449996
  0.4480211739290000  9.8898737534799999  1.4365122706199998
  4.2293561531199995  9.4122412863499996  0.0186723312972000
  1.8107941968549996  8.6400684574400000  3.3932695770049999
  6.2169930203849999  8.8760765298799988  3.1369508410100000
  5.8503186579249995  2.1247363991350001  7.0819270698749994
  5.2213722578849993  4.1765320894849998  6.9856735180050000
  1.5929319510299997  5.0784215393799998  5.5840335028099997
  9.4294680784150007  3.9517260270599999  6.7264342944399989
  5.4754955224549997  5.4104278763149996 10.1986795737749993
  2.3003026326699998  0.4743831694210000  2.4077990405350000
  0.2084196763985000  4.1960564679249996  0.2394442405075000
  3.3936371908249998  5.5503355693099996  6.6975970325600001
  7.8801392110349990  7.8836417538199992  4.6847071381599994
  7.5286187071549993  6.7187144042199991  9.2900709601699987
  2.9605472648849998  6.6059590764299996  2.0395010503699997
  4.4902802733599998  1.0740552555949998  1.4708739512950000
  4.3781376352699999  8.0759139931749999  4.4196065164649996
  2.2034568140899999  6.8007637665449998  7.9956618539699988
  4.8668904204549994  5.0883062665400001  2.1301893374649996
  0.1516611237400000  3.1593957070199998  4.6127875788749995
  1.3525329357399998  4.5296966440599995  8.1336395744099992
  3.6207102051399995  5.7672277231099995  4.1902257042799995
 10.1121371536500000  2.8325461750600001  8.5721722271849998
  2.2939204482949997  0.6461936150950000  0.1406602801765000
  7.9039422058800000  2.3915627634849996  7.9769135491499998
  1.3140560225799998  2.8599027701649997  6.3729940294999992
  6.5137799110649990  2.0741180184199997  0.6268744877044999
  1.3682177920599998  6.3070175603049998  3.5834076139049995
  0.8074770305735000  0.7236406566235000  5.9465722097949998
  7.9232010854499997  7.3805520296549991  6.9858062674400001
  6.1341267384600000  3.4317464901649997  8.9920382670999999
  9.6305630494500001  7.4981986635499993  8.6990908985399997
  4.4312169862799999 10.0817477445299986  7.5529629112349994
  9.9145651483899986 10.1100642201650004  4.1786254459599999
  4.0086551116850000  9.0234590372149999  2.3792068545350000
  3.4995201824800000  4.8312625143999997  9.2298231396699997
  2.6628617626449995  9.0340279345399992  8.5832516992599999
  0.0665505594439000  1.8015425823849998  2.7881976522749996
  5.5872501237350001  0.0473146557376500  5.0731421964649996
  5.1838041677799991  7.4124629515300002  1.4645224014049998
  8.9139611763300000  1.5775738625499998  5.7416887741149996
  7.2789782888899994  5.3176564442399998  1.4788899748700000
  3.5984185115549998  7.0877884680049998  9.9499684015549992
  7.7889811951699999  2.4075131186749998  3.9268304022499998
  8.4457437075899993  0.9693036975860000  1.6556815878050000
  3.5924754214649997  3.5932106491049995  5.1603687867549999
  7.0630255926299998  0.4348074993989999  6.7711708540349997
  3.1819733224650002  3.1207860444250000  7.6969143562499998
  7.2118785552449989  5.0863558709949999  7.7670775383949993
  4.5242232827399995  3.1013842039249999  0.5603629361714999
  2.1253082428550001  2.8353747591749996  9.7017371695999994
  9.6518540165250002  0.4638734987670000  7.8583376692099991
 10.1453347238949991  6.2886368693049999  6.9522002373950000
  5.4955917446150000  2.1449857937199996  4.8287096406499996
  0.7082703143494999  9.4018766189249980  9.2978112733799989
  8.7147451203749995  8.9296153981649997  2.6962125053150001
  7.2703699986050001  3.3171428817800002  5.8909910425099996
  1.2545332182250000  6.3889443846900003 10.1758773054399985
  3.5086084130299997  1.5945657902299997  6.1351478879599997
  1.6959046666099999  1.0647117376699999  8.0401022802100002
  7.5089615792799993  5.6743337530949995  5.6505409697450002
  0.0625896226483500  7.7726938606450000  4.9524933830399993
  1.9521110761600000  2.5532209408299997  1.7346062326599998
  2.5501064348550000  9.7627916982049996  5.2308791597299997
  7.8271007060050000  4.7052424546050000  3.6560113433549994
  4.0223283034899993  0.6850697977094999  3.6956523669449997
  8.3874564941299994  0.8560520911389999  9.6743601515049988
  6.2003074375549998  6.6379414787699993  3.3928304827199995
  0.0247462306381500  4.7283408562949996  2.5292341390749997
  2.4268332672149997  4.7508061452949999  1.0552967392799999
