# electronic degrees
LREAL = A                      # real space projection
PREC  = Normal                 # chose Low only after tests
EDIFF = 1E-5                   # do not use default (too large drift)
ISMEAR = -1                    # determine how partial occupancies are set for each orbital
SIGMA = 0.130                  # specifies the width of the smearing in eV
ALGO = Very Fast               # recommended for MD (fall back ALGO = Fast)
MAXMIX = 40                    # reuse mixer from one MD step to next
ISYM = 0                       # no symmetry
NELMIN = 4                     # minimum of steps per time step
NELM = 60                      # maximum of steps per time step

# MD
IBRION = 0                     # main molecular dynamics tag
NSW = 30                       # number of MD steps
POTIM = 3                      # time step of MD [fs]
LCHARG = .FALSE.               # no charge density written out
LWAVE = .FALSE.                # no wave function coefficients written out
TEBEG = TBEG                   # starting temperature for MD
TEEND = TEND                   # end temperature for MD

# canonic (Nose) MD
MDALGO = 2                     # switch to select thermostat
SMASS =  3                     # Nose mass
ISIF = 2                       # this tag selects the ensemble in combination with the thermostat
