Si                                      
   1.00000000000000     
    10.2114949999999993    0.0000000000000000    0.0000000000000000
     0.0000000000000000   10.2114949999999993    0.0000000000000000
     0.0000000000000000    0.0000000000000000   10.2114949999999993
   Si
   100
Direct
  0.0593166000000025  0.1321569999999994  0.0045799999999971
  0.1122549999999976  0.7477900000000020  0.3926569999999998
  0.2910919999999990  0.5725690000000014  0.9108500000000035
  0.0623817999999972  0.2966029999999975  0.1952720000000028
  0.4004109999999983  0.0450911000000005  0.1597909999999985
  0.5288340000000034  0.0942160000000030  0.6177490000000034
  0.5981820000000013  0.5114310000000017  0.3230930000000001
  0.1098149999999976  0.2639509999999987  0.7733289999999968
  0.0270361999999977  0.0622273999999976  0.2046270000000021
  0.6730730000000023  0.7109299999999976  0.5073390000000018
  0.8303390000000022  0.6639070000000018  0.6802959999999985
  0.4675760000000011  0.3372389999999967  0.6242250000000027
  0.7493750000000006  0.8558159999999972  0.6467000000000027
  0.6370459999999980  0.9592699999999965  0.2315749999999994
  0.9115269999999995  0.6851619999999983  0.0163411999999994
  0.8245969999999971  0.0982516999999987  0.3335399999999993
  0.1158959999999993  0.0879772999999986  0.6132369999999980
  0.9069440000000029  0.3039589999999990  0.9252919999999989
  0.1738679999999988  0.8024490000000029  0.9318749999999980
  0.8411270000000002  0.2968120000000027  0.4547310000000024
  0.9938909999999979  0.9046540000000007  0.9861259999999987
  0.4769879999999986  0.8016930000000002  0.5763660000000002
  0.0267687999999993  0.5955009999999987  0.5597759999999994
  0.2681019999999990  0.1876189999999980  0.0988035000000025
  0.5167450000000002  0.9380880000000005  0.7450350000000014
  0.5859009999999998  0.7548570000000012  0.3187050000000013
  0.6661649999999995  0.8146800000000027  0.0670076999999978
  0.7517649999999989  0.8660059999999987  0.8764660000000006
  0.7009949999999989  0.0839375999999987  0.7526140000000012
  0.4219969999999975  0.5404369999999972  0.7094409999999982
  0.8231240000000000  0.8454049999999995  0.3598199999999991
  0.4008249999999975  0.9495509999999996  0.9359790000000032
  0.2297670000000025  0.8567320000000009  0.2041529999999980
  0.8654879999999991  0.1896399999999971  0.1238799999999998
  0.3877719999999982  0.1552950000000024  0.4517079999999964
  0.5946629999999971  0.2845209999999980  0.8168420000000012
  0.2900440000000017  0.4463579999999965  0.1586890000000025
  0.9788909999999973  0.7174819999999968  0.8016080000000017
  0.1263530000000017  0.3633239999999986  0.9882229999999979
  0.2091989999999981  0.9702520000000021  0.0503726000000029
  0.4309650000000005  0.2575700000000012  0.2252420000000015
  0.3372699999999966  0.7555539999999965  0.7794060000000016
  0.6674289999999985  0.0009526099999988  0.4668530000000004
  0.2702370000000016  0.3997340000000023  0.7738620000000012
  0.0438070000000010  0.6126950000000022  0.2443090000000012
  0.7863759999999971  0.4242970000000028  0.2606570000000019
  0.2384559999999993  0.6628720000000001  0.1119879999999966
  0.9917658299999985  0.4806650000000019  0.7912109999999970
  0.2629140000000021  0.6874079999999978  0.5284679999999966
  0.9706019999999995  0.4590049999999977  0.1000870000000020
  0.8723510000000019  0.4423949999999977  0.6380430000000032
  0.2718879999999970  0.4460199999999972  0.5642569999999978
  0.1303630000000027  0.9949869300000032  0.8229430000000022
  0.6528199999999984  0.1757089999999977  0.1908140000000031
  0.6755339999999990  0.2574040000000011  0.6120110000000025
  0.0294773000000035  0.1988160000000008  0.4001779999999968
  0.6975750000000005  0.2500580000000028  0.0078600000000009
  0.8599040000000002  0.6170260000000027  0.4101410000000030
  0.2428230000000013  0.5355330000000009  0.3656250000000014
  0.4295570000000026  0.7163350000000008  0.9800340000000034
  0.7247440000000012  0.6579610000000002  0.8668779999999998
  0.5532570000000021  0.7196080000000009  0.7655219999999971
  0.2784279999999981  0.9517260000000007  0.4957199999999986
  0.8936240000000026  0.0658074999999982  0.5692639999999969
  0.4729129999999984  0.9586060000000032  0.4054390000000012
  0.4185030000000012  0.1880689999999987  0.7871960000000016
  0.4749100000000013  0.1980959999999996  0.9977990399999968
  0.2232950000000002  0.3307550000000035  0.3550400000000025
  0.2438569999999984  0.1201539999999994  0.3050470000000018
  0.4559039999999968  0.8232179999999971  0.1429779999999994
  0.9390149999999977  0.9505339999999975  0.7560160000000025
  0.3739380000000025  0.3871650000000031  0.9580270000000013
  0.1811239999999970  0.6053509999999989  0.7120519999999999
  0.8809159999999991  0.2266529999999989  0.7303420000000003
  0.8360199999999978  0.9696670000000012  0.1441889999999972
  0.0143899999999988  0.4452309999999997  0.3635170000000016
  0.2496599999999987  0.1528270000000020  0.8799670000000006
  0.5469650000000001  0.5362280000000013  0.9078590000000020
  0.7313580000000002  0.4971910000000008  0.5033340000000024
  0.7719570000000004  0.4488649999999978  0.0542027999999988
  0.5621330000000029  0.3902130000000028  0.1127949999999984
  0.9823345000000003  0.8187229999999985  0.2133759999999967
  0.0764691999999982  0.3416670000000011  0.5866550000000004
  0.6384630000000016  0.2515420000000006  0.3957890000000006
  0.6204850000000022  0.9945313600000034  0.0014499999999984
  0.7840199999999982  0.6715960000000010  0.2237790000000004
  0.8405229999999975  0.0943656000000033  0.9167160000000010
  0.1514200000000017  0.8226870000000019  0.6608930000000015
  0.2741699999999980  0.2077939999999998  0.6042440000000013
  0.3072439999999972  0.9721053999999967  0.7006620000000012
  0.6285680000000013  0.4878750000000025  0.6868490000000023
  0.9507839999999987  0.8070650000000015  0.5499220000000022
  0.4290170000000018  0.5995009999999965  0.2255430000000018
  0.3523070000000033  0.7892760000000010  0.3708239999999989
  0.0912430999999998  0.5956890000000001  0.9943000000000026
  0.0413599999999974  0.9603839999999977  0.3986659999999986
  0.7782809999999998  0.4447929999999971  0.8312889999999982
  0.4730879999999971  0.5625140000000002  0.5013160000000028
  0.6121290000000030  0.6061910000000026  0.1259340000000009
  0.4429329999999965  0.3788970000000020  0.3959029999999970
 
  0.00000000E+00  0.00000000E+00  0.00000000E+00
  0.00000000E+00  0.00000000E+00  0.00000000E+00
  0.00000000E+00  0.00000000E+00  0.00000000E+00
  0.00000000E+00  0.00000000E+00  0.00000000E+00
  0.00000000E+00  0.00000000E+00  0.00000000E+00
  0.00000000E+00  0.00000000E+00  0.00000000E+00
  0.00000000E+00  0.00000000E+00  0.00000000E+00
  0.00000000E+00  0.00000000E+00  0.00000000E+00
  0.00000000E+00  0.00000000E+00  0.00000000E+00
  0.00000000E+00  0.00000000E+00  0.00000000E+00
  0.00000000E+00  0.00000000E+00  0.00000000E+00
  0.00000000E+00  0.00000000E+00  0.00000000E+00
  0.00000000E+00  0.00000000E+00  0.00000000E+00
  0.00000000E+00  0.00000000E+00  0.00000000E+00
  0.00000000E+00  0.00000000E+00  0.00000000E+00
  0.00000000E+00  0.00000000E+00  0.00000000E+00
  0.00000000E+00  0.00000000E+00  0.00000000E+00
  0.00000000E+00  0.00000000E+00  0.00000000E+00
  0.00000000E+00  0.00000000E+00  0.00000000E+00
  0.00000000E+00  0.00000000E+00  0.00000000E+00
  0.00000000E+00  0.00000000E+00  0.00000000E+00
  0.00000000E+00  0.00000000E+00  0.00000000E+00
  0.00000000E+00  0.00000000E+00  0.00000000E+00
  0.00000000E+00  0.00000000E+00  0.00000000E+00
  0.00000000E+00  0.00000000E+00  0.00000000E+00
  0.00000000E+00  0.00000000E+00  0.00000000E+00
  0.00000000E+00  0.00000000E+00  0.00000000E+00
  0.00000000E+00  0.00000000E+00  0.00000000E+00
  0.00000000E+00  0.00000000E+00  0.00000000E+00
  0.00000000E+00  0.00000000E+00  0.00000000E+00
  0.00000000E+00  0.00000000E+00  0.00000000E+00
  0.00000000E+00  0.00000000E+00  0.00000000E+00
  0.00000000E+00  0.00000000E+00  0.00000000E+00
  0.00000000E+00  0.00000000E+00  0.00000000E+00
  0.00000000E+00  0.00000000E+00  0.00000000E+00
  0.00000000E+00  0.00000000E+00  0.00000000E+00
  0.00000000E+00  0.00000000E+00  0.00000000E+00
  0.00000000E+00  0.00000000E+00  0.00000000E+00
  0.00000000E+00  0.00000000E+00  0.00000000E+00
  0.00000000E+00  0.00000000E+00  0.00000000E+00
  0.00000000E+00  0.00000000E+00  0.00000000E+00
  0.00000000E+00  0.00000000E+00  0.00000000E+00
  0.00000000E+00  0.00000000E+00  0.00000000E+00
  0.00000000E+00  0.00000000E+00  0.00000000E+00
  0.00000000E+00  0.00000000E+00  0.00000000E+00
  0.00000000E+00  0.00000000E+00  0.00000000E+00
  0.00000000E+00  0.00000000E+00  0.00000000E+00
  0.00000000E+00  0.00000000E+00  0.00000000E+00
  0.00000000E+00  0.00000000E+00  0.00000000E+00
  0.00000000E+00  0.00000000E+00  0.00000000E+00
  0.00000000E+00  0.00000000E+00  0.00000000E+00
  0.00000000E+00  0.00000000E+00  0.00000000E+00
  0.00000000E+00  0.00000000E+00  0.00000000E+00
  0.00000000E+00  0.00000000E+00  0.00000000E+00
  0.00000000E+00  0.00000000E+00  0.00000000E+00
  0.00000000E+00  0.00000000E+00  0.00000000E+00
  0.00000000E+00  0.00000000E+00  0.00000000E+00
  0.00000000E+00  0.00000000E+00  0.00000000E+00
  0.00000000E+00  0.00000000E+00  0.00000000E+00
  0.00000000E+00  0.00000000E+00  0.00000000E+00
  0.00000000E+00  0.00000000E+00  0.00000000E+00
  0.00000000E+00  0.00000000E+00  0.00000000E+00
  0.00000000E+00  0.00000000E+00  0.00000000E+00
  0.00000000E+00  0.00000000E+00  0.00000000E+00
  0.00000000E+00  0.00000000E+00  0.00000000E+00
  0.00000000E+00  0.00000000E+00  0.00000000E+00
  0.00000000E+00  0.00000000E+00  0.00000000E+00
  0.00000000E+00  0.00000000E+00  0.00000000E+00
  0.00000000E+00  0.00000000E+00  0.00000000E+00
  0.00000000E+00  0.00000000E+00  0.00000000E+00
  0.00000000E+00  0.00000000E+00  0.00000000E+00
  0.00000000E+00  0.00000000E+00  0.00000000E+00
  0.00000000E+00  0.00000000E+00  0.00000000E+00
  0.00000000E+00  0.00000000E+00  0.00000000E+00
  0.00000000E+00  0.00000000E+00  0.00000000E+00
  0.00000000E+00  0.00000000E+00  0.00000000E+00
  0.00000000E+00  0.00000000E+00  0.00000000E+00
  0.00000000E+00  0.00000000E+00  0.00000000E+00
  0.00000000E+00  0.00000000E+00  0.00000000E+00
  0.00000000E+00  0.00000000E+00  0.00000000E+00
  0.00000000E+00  0.00000000E+00  0.00000000E+00
  0.00000000E+00  0.00000000E+00  0.00000000E+00
  0.00000000E+00  0.00000000E+00  0.00000000E+00
  0.00000000E+00  0.00000000E+00  0.00000000E+00
  0.00000000E+00  0.00000000E+00  0.00000000E+00
  0.00000000E+00  0.00000000E+00  0.00000000E+00
  0.00000000E+00  0.00000000E+00  0.00000000E+00
  0.00000000E+00  0.00000000E+00  0.00000000E+00
  0.00000000E+00  0.00000000E+00  0.00000000E+00
  0.00000000E+00  0.00000000E+00  0.00000000E+00
  0.00000000E+00  0.00000000E+00  0.00000000E+00
  0.00000000E+00  0.00000000E+00  0.00000000E+00
  0.00000000E+00  0.00000000E+00  0.00000000E+00
  0.00000000E+00  0.00000000E+00  0.00000000E+00
  0.00000000E+00  0.00000000E+00  0.00000000E+00
  0.00000000E+00  0.00000000E+00  0.00000000E+00
  0.00000000E+00  0.00000000E+00  0.00000000E+00
  0.00000000E+00  0.00000000E+00  0.00000000E+00
  0.00000000E+00  0.00000000E+00  0.00000000E+00
  0.00000000E+00  0.00000000E+00  0.00000000E+00
