Si 
 1.0000000000000000
    10.2114949999999993    0.0000000000000000    0.0000000000000000
     0.0000000000000000   10.2114949999999993    0.0000000000000000
     0.0000000000000000    0.0000000000000000   10.2114949999999993
 100
Cartesian
  0.6057111643169999  1.3495205447149998 10.2582636470999997
  1.1462913712249998  7.6360538460499994  4.0096149922150000
  2.9724845025400000  5.8467854806549999  9.3011402207499998
  0.6370114387910000  3.0287600514849999  1.9940190516399998
  4.0887949244449997  0.4604475421945000  1.6317049975449998
  5.4001857468300001  0.9620862129199999  6.3081408247549993
  6.1083325020899997  5.2224750993449991  3.2992625540349998
  1.1213753234249999  2.6953343167449999  7.8968452168549996
  0.2760800211190000  0.6354347839630000  2.0895475873649998
  6.8730815741350000  7.2596581403499991  5.1806896618049993
  8.4790025468050008  6.7794830109649995  6.9468392025199996
  4.7746499861200000  3.4437143623049997  6.3742704663750001
  7.6522390656249994  8.7391608049199991  6.6037738165000004
  6.5051920437699993  9.7955808086499996  2.3647269546250000
  9.3080534028649993  6.9965283371900000  0.1668680820940000
  8.4203681425150005  1.0032967432914999  3.4059420423000000
  1.1834714245200000  0.8983797590634999  6.2620665593149996
  9.2612541212799986  3.1038758087049998  9.4486146315399999
  1.7754522126599999  8.1942039512550000  9.5158369031249990
  8.5891641548649993  3.0308942539400001  4.6434833328449994
 10.1491129770449984  9.2378697977299993 10.0698207183699981
  4.8707605770599995  8.1864840610349994  5.8855585271699997
  0.2733494673560000  6.0809554839949991  5.7161498251200005
  2.7377222324899999  1.9158704804050000  1.0089314462324999
  5.2767389837750001  9.5792809215600006  7.6079211773249993
  5.9829251319949996  7.7082184812149999  3.2544545139749999
  6.8025405666749998  8.3191007465999984  0.6842487935115000
  7.6766445386749993  8.8432159389699994  8.9500281766699992
  7.1582069375249997  0.8571283827120000  7.6853140979299992
  4.3092202555150001  5.5186697233149991  7.2444532242949995
  8.4053266103799995  8.6328489304749993  3.6743001308999994
  4.0930224833750000  9.6963352887449989  9.5577448786049999
  2.3462645716649999  8.7485145343399999  2.0847073387349999
  8.8379263845599993  1.9365079117999999  1.2650000006000000
  3.9597318391399998  1.5857941160249998  4.6126139834599993
  6.0723982511850005  2.9053847688949999  8.3411779987899983
  2.9617828557800001  4.5579824852099993  1.6204519300549998
  9.9959405520449991  7.3265638555899990  8.1856160839599994
  1.2902530277349999  3.7100812093799997 10.0912342233849994
  2.1362345425050000  9.9077234467399986  0.5143795530369999
  4.4007969426750000  2.6301747671500002  2.3000575567899997
  3.4440309186499998  7.7153358932299989  7.9589004719699998
  6.8154478963549998  0.0097275722519500  4.7672670752349999
  2.7595237743149998  4.0818817423299993  7.9022879436900002
  0.4473349614650000  6.2565319290249999  2.4947601319549997
  8.0300745921199983  4.3327066940149992  2.6616976522150000
  2.4349922517199998  6.7689141136399993  1.1435649020600001
 -0.0840831857841500  4.9083082441750001  8.0794471704449986
  2.6847449964299996  7.0194633549600001  5.3964483396600000
  9.9112974699899983  4.6871272624749993  1.0220379000649999
  8.9080078747449996  4.5175143305249996  6.5153729042849999
  2.7763829525600001  4.5545309998999999  5.7619075342150001
  1.3312011226850000 -0.0511909392396500  8.4034783297849991
  6.6662681658999992  1.7942515749549999  1.9484962069300000
  6.8982120633299990  2.6284796589799999  6.2495472664449991
  0.3010073015635000  2.0302085899200000  4.0864156461099999
  7.1232836246249986  2.5534660167099998 10.2917573506999993
  8.7809053964799997  6.3007579138699992  4.1881527707949999
  2.4795858503849999  5.4685925518350000  3.7335778593749995
  4.3864191577150002  7.3148512708249998 10.0076122908299983
  7.4007197322799998  6.7187654616949999  8.8521203626100000
  5.6495810892149994  7.3482734939599998  7.8171240753899998
  2.8431661298599997  9.7185452903699989  5.0620423014000000
  9.1252370078799991  0.6719929572125000  5.8130364896800000
  4.8291487349349991  9.7888003759699984  4.1401383213049998
  4.2735412919849995  1.9204656531549997  8.0384480180200004
  4.8495410904499998  2.0228563135199997 -0.0224750920352000
  2.2801757760249997  3.3775030287250001  3.6254891848000002
  2.4901445362149999  1.2269519702299998  3.1149859152650001
  4.6554614164799997  8.4062864909100004  1.4600191321099998
  9.5887469774250000  9.7063731883299997  7.7200536039199994
  3.8184660173099996  3.9535334616749997  9.7828879203649990
  1.8495468203799998  6.1815387097449994  7.2711154377399998
  8.9954693294200005  2.3144659762349997  7.4578836812900002
  8.5370140498999998  9.9017497221649986  1.4723852525550001
 10.3584384130499991  4.5464741303449996  3.7120520279149996
  2.5494018416999999  1.5605921463649999  8.9857786206650001
  5.5853303626750002  5.4756895408600004  9.2705976392049987
  7.4682585602099989  5.0770634105449997  5.1397926243299992
  7.8828350457149998  4.5835827031749998  0.5534916211860000
  5.7402183188349998  3.9846580984349993  1.1518055785250001
 -0.1803911649225000  8.3603858208849999  2.1788879571200002
  0.7808648534539999  3.4889308621649997  5.9906245992249998
  6.5196617321849999  2.5686198752899996  4.0415973945549997
  6.3360794750749987 -0.0558429900168000 10.2263016677499987
  8.0060163098999997  6.8579991960199989  2.2851181396049998
  8.5829964118850004  0.9636138525719998  9.3610408504199984
  1.5462245728999999  8.4008641870649985  6.7487055650349994
  2.7996855841500001  2.1218873920300001  6.1702345847799993
  3.1374205697800002 -0.2848455684270000  7.1548065096899993
  6.4186189891599996  4.9819331231249997  7.0137551292550002
  9.7089260620799998  8.2413402121750003  5.6155257533900000
  4.3809049504149993  6.1218014639949994  2.3031312167849998
  3.5975811689649997  8.0596879276199989  3.7866674218799998
  0.9317284594344999  6.0828752450549999 10.1532894784999996
 10.6338424331999999  9.8069564140800001  4.0709758656700004
  7.9474125400949998  4.5420014955349997  8.4887034670549983
  4.8309357465599998  5.7441088984299995  5.1191858274199991
  6.2507522228549997  6.1901163655450002  1.2859744113299998
  4.5230081148350001  3.8691048210149996  4.0427615049850001
